 C                                      
    1.000000000000000     
    28.0500000000000007    0.0000000000000000    0.0000000000000000
     0.0000000000000000    8.0999999999999996    0.0000000000000000
     0.0000000000000000    0.0000000000000000   33.5000000000000000
   C 
    92
Direct
     0.1336713012477730    0.2722567901234569    0.2328913432835833
     0.1330424242424257    0.4471049382716075    0.2309185074626896
     0.1774156862745073    0.1896888888888881    0.2307379104477647
     0.1779247771835983    0.5252506172839517    0.2310343283582057
     0.2208413547237100    0.2731864197530882    0.2251140298507437
     0.2217226381461685    0.4423580246913588    0.2226313432835809
     0.2646338680926945    0.1908888888888924    0.2337343283582101
     0.2666046345811068    0.5287839506172816    0.2229644776119386
     0.3103229946524095    0.2718308641975327    0.2317994029850752
     0.3105508021390406    0.4425345679012338    0.2262988059701527
     0.3526709447415328    0.1922456790123448    0.2434397014925338
     0.3554196078431389    0.5304432098765446    0.2339531343283596
     0.3973725490196074    0.2788209876543206    0.2484829850746237
     0.3971443850267349    0.4491061728395067    0.2453095522388082
     0.4392905525846729    0.1971148148148174    0.2640773134328356
     0.4420570409982147    0.5329506172839515    0.2533492537313435
     0.4804527629233490    0.2892913580246912    0.2762023880597013
     0.4822852049910864    0.4503716049382689    0.2665922388059698
     0.5229340463458101    0.2025209876543244    0.2874405970149283
     0.5254937611408224    0.5280530864197530    0.2762716417910482
     0.5658110516934016    0.2798246913580229    0.2961811940298489
     0.5683814616755782    0.4433543209876518    0.2867901492537328
     0.6085525846702353    0.1912061728395074    0.3046985074626889
     0.6105739750445665    0.5300592592592608    0.2976008955223861
     0.6534010695187149    0.2756444444444455    0.3060208955223871
     0.6534438502673794    0.4473740740740766    0.3008507462686580
     0.6969090909090880    0.1942629629629664    0.3130626865671644
     0.6963957219251355    0.5324679012345683    0.3083552238805964
     0.7407237076648840    0.2805111111111103    0.3087970149253749
     0.7406951871657768    0.4478382716049367    0.3079194029850711
     0.7844563279857368    0.1918814814814809    0.3107492537313448
     0.7855187165775419    0.5286049382716058    0.3089313432835823
     0.8291051693404654    0.2751864197530836    0.3012208955223912
     0.8298324420677332    0.4450370370370393    0.2997223880596991
     0.8734795008912641    0.1991987654321008    0.3009402985074630
     0.8720926916221003    0.5350999999999999    0.2978474626865690
     0.9161925133689834    0.2810864197530876    0.2882065671641811
     0.9151372549019641    0.4503444444444469    0.2855662686567157
     0.9590481283422463    0.1972814814814825    0.2807877611940270
     0.9576934046345826    0.5354506172839493    0.2792271641791046
     0.0004382424242451    0.2850222222222243    0.2688202985074639
     0.9993012477718395    0.4496641975308648    0.2618402985074653
     0.0437900178253088    0.1987555555555574    0.2605931343283601
     0.0424998217468797    0.5300283950617271    0.2541528358208964
     0.0834388591800348    0.2707296296296278    0.2419516417910472
     0.0823030303030308    0.4421370370370354    0.2368444776119389
     0.1390156862745116    0.7725493827160506    0.2561605970149259
     0.1385871657753981    0.9457419753086427    0.2578005970149277
     0.1785479500891256    0.6925456790123476    0.2405805970149260
     0.1793422459893037    0.0268632098765451    0.2456250746268651
     0.2228042780748680    0.7780580246913615    0.2422343283582080
     0.2229750445632774    0.9429975308641971    0.2471740298507470
     0.2659137254901935    0.6965185185185163    0.2343859701492548
     0.2667219251336874    0.0319224691358002    0.2439176119402973
     0.3093311942959005    0.7688629629629631    0.2427104477611906
     0.3081593582887692    0.9444765432098734    0.2504005970149237
     0.3533115864527616    0.6964320987654347    0.2447128358208985
     0.3514467023172898    0.0297404938271626    0.2520519402985073
     0.3952620320855615    0.7828296296296315    0.2558065671641785
     0.3955080213903770    0.9498654320987683    0.2613161194029843
     0.4403743315507995    0.7018938271604966    0.2581223880597037
     0.4376648841354722    0.0298172839506208    0.2701895522388043
     0.4828841354723679    0.7784049382716063    0.2706202985074597
     0.4800320855614970    0.9450259259259255    0.2795283582089567
     0.5263244206773621    0.7023975308641965    0.2761785074626886
     0.5217076648841328    0.0309707407407416    0.2926937313432845
     0.5658645276292305    0.7756308641975309    0.2946140298507487
     0.5640998217468791    0.9492703703703711    0.3005283582089575
     0.6096969696969694    0.7003802469135820    0.2984931343283606
     0.6077860962566817    0.0279265432098796    0.3066029850746261
     0.6531265597147922    0.7814592592592575    0.3124865671641786
     0.6513761140819980    0.9517481481481482    0.3175522388059733
     0.6974688057040979    0.6966197530864164    0.3168447761194031
     0.6969661319073097    0.0312370370370374    0.3207522388059729
     0.7415044563279878    0.7796037037037067    0.3227194029850722
     0.7408663101604276    0.9467765432098787    0.3262328358208961
     0.7852335115864548    0.6896580246913615    0.3163671641791055
     0.7852620320855621    0.0307176543209877    0.3198477611940334
     0.8282495543672042    0.7823777777777750    0.3146417910447781
     0.8294973262032102    0.9433049382716021    0.3153880597014904
     0.8725418894830668    0.7002530864197496    0.3048805970149289
     0.8737076648841366    0.0333585185185186    0.3109313432835847
     0.9186131907308379    0.7821604938271634    0.3012029850746245
     0.9179607843137276    0.9497296296296298    0.3036477611940285
     0.9616934046345804    0.6941271604938279    0.2919122388059705
     0.9606417112299468    0.0259812345679009    0.2891101492537302
     0.0055756862745113    0.7767691358024678    0.2818868656716447
     0.0048371122994624    0.9485160493827181    0.2825567164179077
     0.0456645276292349    0.6907135802469142    0.2661128358208984
     0.0464798573975074    0.0345760493827143    0.2721077611940288
     0.0906755793226353    0.7750925925925927    0.2666716417910422
     0.0894680926916251    0.9468888888888927    0.2694898507462682
 
  0.00000000E+00  0.00000000E+00  0.00000000E+00
  0.00000000E+00  0.00000000E+00  0.00000000E+00
  0.00000000E+00  0.00000000E+00  0.00000000E+00
  0.00000000E+00  0.00000000E+00  0.00000000E+00
  0.00000000E+00  0.00000000E+00  0.00000000E+00
  0.00000000E+00  0.00000000E+00  0.00000000E+00
  0.00000000E+00  0.00000000E+00  0.00000000E+00
  0.00000000E+00  0.00000000E+00  0.00000000E+00
  0.00000000E+00  0.00000000E+00  0.00000000E+00
  0.00000000E+00  0.00000000E+00  0.00000000E+00
  0.00000000E+00  0.00000000E+00  0.00000000E+00
  0.00000000E+00  0.00000000E+00  0.00000000E+00
  0.00000000E+00  0.00000000E+00  0.00000000E+00
  0.00000000E+00  0.00000000E+00  0.00000000E+00
  0.00000000E+00  0.00000000E+00  0.00000000E+00
  0.00000000E+00  0.00000000E+00  0.00000000E+00
  0.00000000E+00  0.00000000E+00  0.00000000E+00
  0.00000000E+00  0.00000000E+00  0.00000000E+00
  0.00000000E+00  0.00000000E+00  0.00000000E+00
  0.00000000E+00  0.00000000E+00  0.00000000E+00
  0.00000000E+00  0.00000000E+00  0.00000000E+00
  0.00000000E+00  0.00000000E+00  0.00000000E+00
  0.00000000E+00  0.00000000E+00  0.00000000E+00
  0.00000000E+00  0.00000000E+00  0.00000000E+00
  0.00000000E+00  0.00000000E+00  0.00000000E+00
  0.00000000E+00  0.00000000E+00  0.00000000E+00
  0.00000000E+00  0.00000000E+00  0.00000000E+00
  0.00000000E+00  0.00000000E+00  0.00000000E+00
  0.00000000E+00  0.00000000E+00  0.00000000E+00
  0.00000000E+00  0.00000000E+00  0.00000000E+00
  0.00000000E+00  0.00000000E+00  0.00000000E+00
  0.00000000E+00  0.00000000E+00  0.00000000E+00
  0.00000000E+00  0.00000000E+00  0.00000000E+00
  0.00000000E+00  0.00000000E+00  0.00000000E+00
  0.00000000E+00  0.00000000E+00  0.00000000E+00
  0.00000000E+00  0.00000000E+00  0.00000000E+00
  0.00000000E+00  0.00000000E+00  0.00000000E+00
  0.00000000E+00  0.00000000E+00  0.00000000E+00
  0.00000000E+00  0.00000000E+00  0.00000000E+00
  0.00000000E+00  0.00000000E+00  0.00000000E+00
  0.00000000E+00  0.00000000E+00  0.00000000E+00
  0.00000000E+00  0.00000000E+00  0.00000000E+00
  0.00000000E+00  0.00000000E+00  0.00000000E+00
  0.00000000E+00  0.00000000E+00  0.00000000E+00
  0.00000000E+00  0.00000000E+00  0.00000000E+00
  0.00000000E+00  0.00000000E+00  0.00000000E+00
  0.00000000E+00  0.00000000E+00  0.00000000E+00
  0.00000000E+00  0.00000000E+00  0.00000000E+00
  0.00000000E+00  0.00000000E+00  0.00000000E+00
  0.00000000E+00  0.00000000E+00  0.00000000E+00
  0.00000000E+00  0.00000000E+00  0.00000000E+00
  0.00000000E+00  0.00000000E+00  0.00000000E+00
  0.00000000E+00  0.00000000E+00  0.00000000E+00
  0.00000000E+00  0.00000000E+00  0.00000000E+00
  0.00000000E+00  0.00000000E+00  0.00000000E+00
  0.00000000E+00  0.00000000E+00  0.00000000E+00
  0.00000000E+00  0.00000000E+00  0.00000000E+00
  0.00000000E+00  0.00000000E+00  0.00000000E+00
  0.00000000E+00  0.00000000E+00  0.00000000E+00
  0.00000000E+00  0.00000000E+00  0.00000000E+00
  0.00000000E+00  0.00000000E+00  0.00000000E+00
  0.00000000E+00  0.00000000E+00  0.00000000E+00
  0.00000000E+00  0.00000000E+00  0.00000000E+00
  0.00000000E+00  0.00000000E+00  0.00000000E+00
  0.00000000E+00  0.00000000E+00  0.00000000E+00
  0.00000000E+00  0.00000000E+00  0.00000000E+00
  0.00000000E+00  0.00000000E+00  0.00000000E+00
  0.00000000E+00  0.00000000E+00  0.00000000E+00
  0.00000000E+00  0.00000000E+00  0.00000000E+00
  0.00000000E+00  0.00000000E+00  0.00000000E+00
  0.00000000E+00  0.00000000E+00  0.00000000E+00
  0.00000000E+00  0.00000000E+00  0.00000000E+00
  0.00000000E+00  0.00000000E+00  0.00000000E+00
  0.00000000E+00  0.00000000E+00  0.00000000E+00
  0.00000000E+00  0.00000000E+00  0.00000000E+00
  0.00000000E+00  0.00000000E+00  0.00000000E+00
  0.00000000E+00  0.00000000E+00  0.00000000E+00
  0.00000000E+00  0.00000000E+00  0.00000000E+00
  0.00000000E+00  0.00000000E+00  0.00000000E+00
  0.00000000E+00  0.00000000E+00  0.00000000E+00
  0.00000000E+00  0.00000000E+00  0.00000000E+00
  0.00000000E+00  0.00000000E+00  0.00000000E+00
  0.00000000E+00  0.00000000E+00  0.00000000E+00
  0.00000000E+00  0.00000000E+00  0.00000000E+00
  0.00000000E+00  0.00000000E+00  0.00000000E+00
  0.00000000E+00  0.00000000E+00  0.00000000E+00
  0.00000000E+00  0.00000000E+00  0.00000000E+00
  0.00000000E+00  0.00000000E+00  0.00000000E+00
  0.00000000E+00  0.00000000E+00  0.00000000E+00
  0.00000000E+00  0.00000000E+00  0.00000000E+00
  0.00000000E+00  0.00000000E+00  0.00000000E+00
  0.00000000E+00  0.00000000E+00  0.00000000E+00
