 C 
 1.0000000000000000
    28.0500000000000007    0.0000000000000000    0.0000000000000000
     0.0000000000000000    8.0999999999999996    0.0000000000000000
     0.0000000000000000    0.0000000000000000   33.5000000000000000
 C  
  92
Cartesian
  0.3052060000000000  0.7789140000000000 16.5938000000000017
  0.2640110000000000  2.1588099999999999 16.7412999999999990
  1.3750100000000001  0.1022670000000000 16.0247999999999990
  1.3873300000000000  2.8258299999999998 16.1323000000000008
  2.5732599999999999  0.8304570000000000 15.6622000000000003
  2.5613899999999998  2.1731099999999999 15.7506000000000004
  3.7868499999999998  0.1714790000000000 15.2472999999999992
  3.7619400000000001  2.8194800000000000 15.3460000000000001
  4.9804899999999996  0.8517169999999999 14.9972999999999992
  4.9854200000000004  2.1857000000000002 15.1030999999999995
  6.2184299999999997  0.1680630000000000 14.9816000000000003
  6.2191700000000001  2.8199000000000001 15.0900999999999996
  7.4806699999999999  0.7918070000000000 15.1526999999999994
  7.4375400000000003  2.2126100000000002 15.2003000000000004
  8.7174300000000002  0.1941520000000000 15.3519000000000005
  8.6680799999999998  2.9039500000000000 15.5565999999999995
  9.8672599999999999  0.8744780000000000 15.7377000000000002
  9.8475699999999993  2.2291599999999998 15.9664999999999999
 11.0838000000000001  0.2248710000000000 16.0281999999999982
 11.0276999999999994  2.9223400000000002 16.3500000000000014
 12.2828999999999997  0.8661350000000000 16.5522999999999989
 12.2056000000000004  2.2149700000000001 16.7150999999999996
 13.5138999999999996  0.2184830000000000 16.8033999999999999
 13.4268999999999998  2.8889000000000000 17.1575999999999986
 14.7161000000000008  0.8945970000000000 17.1920000000000002
 14.6216000000000008  2.2331699999999999 17.4825000000000017
 15.9374000000000002  0.3004240000000000 17.4796000000000014
 15.7955000000000005  2.9182899999999998 17.8276000000000003
 17.0935999999999986  0.9005400000000000 17.8170999999999999
 17.0277999999999992  2.2378900000000002 18.0032999999999994
 18.3714000000000013  0.2287630000000000 18.0089000000000006
 18.2836999999999996  2.8914700000000000 18.2867999999999995
 19.5864000000000011  0.8514630000000000 18.2924000000000007
 19.5806000000000004  2.2310300000000001 18.4302999999999990
 20.8195000000000014  0.1738220000000000 18.1133999999999986
 20.8555999999999990  2.8317700000000001 18.3852000000000011
 22.0339999999999989  0.8006799999999999 18.2250000000000014
 22.1238999999999990  2.1393599999999999 18.3682000000000016
 23.3450999999999986  0.1358140000000000 17.9701999999999984
 23.3687000000000005  2.8620299999999999 18.2205000000000013
 24.5916999999999994  0.8247370000000001 17.8899000000000008
 24.5885999999999996  2.2347700000000001 18.0391000000000012
 25.7886999999999986  0.2020790000000000 17.4592999999999989
 25.7524000000000015  2.8746800000000001 17.7016999999999989
 26.9524000000000008  0.8678280000000000 17.2408999999999999
 26.9312000000000005  2.2343400000000000 17.3194000000000017
  0.2296660000000000  4.8078900000000004 16.3700000000000010
  0.2645860000000000  6.2159599999999999 16.3543999999999983
  1.3280200000000000  4.1398400000000004 15.9103999999999992
  1.3802800000000000  6.8399700000000001 15.9398999999999997
  2.5748700000000002  4.8244899999999999 15.5132999999999992
  2.5609899999999999  6.1840099999999998 15.5319000000000003
  3.7225600000000001  4.1361800000000004 15.1867999999999999
  3.7465899999999999  6.8820600000000001 15.1410999999999998
  4.9610500000000002  4.8491499999999998 15.0813000000000006
  4.9770500000000002  6.2726199999999999 15.0271000000000008
  6.1826100000000004  4.2337899999999999 15.0934000000000008
  6.2192100000000003  6.9000300000000001 15.0717999999999996
  7.4601100000000002  4.8896699999999997 15.2607999999999997
  7.5025899999999996  6.2527900000000001 15.3000000000000007
  8.7171500000000002  4.2854900000000002 15.5411000000000001
  8.6985499999999991  6.9208100000000004 15.4074000000000009
  9.8985599999999998  4.9307299999999996 15.8125000000000000
  9.9929600000000001  6.2843900000000001 15.6111000000000004
 11.0031999999999996  4.2809499999999998 16.3205999999999989
 11.1466999999999992  6.9352200000000002 15.9413000000000000
 12.2765000000000004  4.9503000000000004 16.6970999999999989
 12.3308000000000000  6.2702600000000004 16.3869000000000007
 13.4451999999999998  4.2507599999999996 17.1921999999999997
 13.5244999999999997  6.9577600000000004 16.8148000000000017
 14.6868999999999996  4.9466099999999997 17.4348999999999990
 14.7117000000000004  6.3155900000000003 17.2500999999999998
 15.8734999999999999  4.2685700000000004 17.6782000000000004
 15.9570000000000007  6.9944499999999996 17.4056999999999995
 17.1087999999999987  4.9467800000000004 17.6810000000000009
 17.1331999999999987  6.3249300000000002 17.6891999999999996
 18.3159999999999989  4.2425199999999998 18.0210000000000008
 18.3811000000000000  6.9695799999999997 17.8292000000000002
 19.5960999999999999  4.9069399999999996 18.0288000000000004
 19.6214000000000013  6.2519299999999998 17.8918999999999997
 20.8294999999999995  4.2068800000000000 18.1646000000000001
 20.8516000000000012  6.9066299999999998 17.9087999999999994
 22.0836000000000006  4.8628099999999996 18.0338999999999992
 22.1032000000000011  6.2142799999999996 17.8465999999999987
 23.3454000000000015  4.2266700000000004 18.0320999999999998
 23.3527999999999984  6.8858800000000002 17.7970000000000006
 24.5307999999999993  4.8791500000000001 17.6827000000000005
 24.5180000000000007  6.2262800000000000 17.5487000000000002
 25.8450999999999986  4.2177400000000000 17.5061000000000000
 25.7213999999999992  6.9473200000000004 17.2221000000000011
 26.8822000000000010  4.8614800000000002 16.8480999999999987
 26.8684000000000012  6.2405900000000001 16.8049999999999997
