 C                                      
    1.000000000000000     
    28.0500000000000007    0.0000000000000000    0.0000000000000000
     0.0000000000000000    8.0999999999999996    0.0000000000000000
     0.0000000000000000    0.0000000000000000   33.5000000000000000
   C 
    92
Direct
     0.0094031016042777    0.0989462962962975    0.5016417910447757
     0.0081002495543672    0.2739864197530864    0.4977910447761218
     0.0490185383244182    0.0201327160493818    0.4845402985074614
     0.0488969696969690    0.3577432098765456    0.4833223880597046
     0.0912317290552593    0.1031783950617253    0.4727134328358176
     0.0928488413547228    0.2728555555555587    0.4716358208955214
     0.1360766488413532    0.0233748148148152    0.4664507462686558
     0.1345540106951901    0.3548913580246946    0.4624955223880605
     0.1786987522281649    0.1003779012345660    0.4588656716417887
     0.1794773618538343    0.2741172839506163    0.4577999999999989
     0.2240616755793212    0.0238725925925891    0.4558089552238798
     0.2236092691622105    0.3588506172839487    0.4579283582089531
     0.2682402852049890    0.1064023456790153    0.4549104477611934
     0.2680231729055293    0.2752358024691333    0.4573253731343314
     0.3136417112299483    0.0294933333333347    0.4616686567164194
     0.3123721925133722    0.3542037037037034    0.4607791044776093
     0.3572156862745075    0.1063149382716020    0.4659820895522415
     0.3567344028520480    0.2741172839506163    0.4678238805970167
     0.4024278074866317    0.0237243209876539    0.4695850746268633
     0.3995793226381466    0.3591419753086456    0.4793850746268689
     0.4426024955436745    0.0996602469135794    0.4856477611940306
     0.4417575757575776    0.2760641975308644    0.4874179104477605
     0.4856007130124809    0.0200722222222254    0.4919432835820885
     0.4843992869875251    0.3575888888888912    0.4952985074626852
     0.5236327985739777    0.0992722222222255    0.5102835820895493
     0.5246559714795040    0.2721086419753078    0.5122656716417922
     0.5675258467023170    0.0219761728395085    0.5186776119402978
     0.5667843137254920    0.3523283950617255    0.5228955223880618
     0.6113654188948274    0.1020685185185215    0.5303462686567144
     0.6099037433155061    0.2715345679012344    0.5328358208955208
     0.6555757575757610    0.0238755555555556    0.5344268656716409
     0.6530766488413562    0.3520283950617298    0.5422865671641759
     0.6999679144385027    0.1025518518518496    0.5401910447761225
     0.6983244206773591    0.2736999999999981    0.5445223880597041
     0.7433725490196110    0.0234775308641986    0.5478119402985087
     0.7412263814616722    0.3541493827160522    0.5482716417910467
     0.7871087344028496    0.1075583950617300    0.5481194029850727
     0.7868841354723699    0.2747456790123479    0.5444895522388080
     0.8311479500891252    0.0271079012345652    0.5453402985074618
     0.8291942959001801    0.3593851851851824    0.5335940298507467
     0.8753868092691590    0.1107576543209845    0.5340089552238823
     0.8729590017825331    0.2790851851851883    0.5287671641791079
     0.9169304812834227    0.0211782716049385    0.5231820895522361
     0.9158752228163962    0.3594901234567871    0.5169492537313403
     0.9606060606060609    0.1001360493827192    0.5132029850746278
     0.9594830659536555    0.2691913580246919    0.5123044776119414
     0.0040084491978618    0.6084271604938252    0.4852776119402975
     0.0050287344028490    0.7801061728395098    0.4870298507462678
     0.0462609625668478    0.5258641975308649    0.4761671641791025
     0.0475040998217438    0.8559456790123434    0.4803611940298538
     0.0880224598930468    0.6025641975308673    0.4628746268656698
     0.0915176470588221    0.7693370370370403    0.4681970149253729
     0.1326819964349397    0.5236172839506139    0.4558238805970163
     0.1330524064171144    0.8533012345679012    0.4649910447761201
     0.1746905525846714    0.6067185185185195    0.4559910447761197
     0.1766221033868121    0.7780740740740768    0.4566328358208978
     0.2210046345811065    0.5242049382716019    0.4565880597014953
     0.2231746880570427    0.8573185185185181    0.4552955223880630
     0.2667803921568606    0.6055802469135827    0.4548089552238821
     0.2679607843137291    0.7715703703703696    0.4536149253731310
     0.3123618538324422    0.5209839506172855    0.4584388059701467
     0.3129864527629209    0.8577456790123463    0.4582895522388029
     0.3561194295900165    0.6088419753086427    0.4612089552238814
     0.3569696969696992    0.7775148148148148    0.4578268656716418
     0.4006060606060586    0.5264987654321018    0.4691402985074618
     0.4024278074866317    0.8563753086419723    0.4669492537313431
     0.4459465240641691    0.6015555555555565    0.4748417910447742
     0.4465597147950078    0.7683000000000035    0.4764238805970180
     0.4876684491978622    0.5218876543209845    0.4859343283582120
     0.4868734402852084    0.8519123456790112    0.4883671641791025
     0.5296506238859209    0.6006135802469146    0.4987791044776131
     0.5302103386809236    0.7728049382716051    0.4970238805970126
     0.5693725490196044    0.5207419753086384    0.5181850746268637
     0.5699964349376145    0.8529530864197525    0.5142447761194049
     0.6090766488413522    0.5974234567901249    0.5328119402985081
     0.6102459893048149    0.7729716049382702    0.5275671641791035
     0.6530267379679131    0.5225271604938300    0.5437283582089520
     0.6522245989304807    0.8544024691358061    0.5367522388059669
     0.6967985739750446    0.6077716049382715    0.5473014925373150
     0.6973939393939403    0.7772617283950609    0.5442358208955227
     0.7411693404634576    0.5237888888888875    0.5494537313432843
     0.7421247771835979    0.8565296296296268    0.5479582089552224
     0.7859251336898367    0.6046629629629621    0.5467522388059720
     0.7864955436720109    0.7719629629629665    0.5509701492537289
     0.8291194295900155    0.5316345679012358    0.5356955223880604
     0.8311336898395751    0.8541654320987675    0.5443223880597046
     0.8722424242424225    0.6084148148148145    0.5229522388059706
     0.8716434937611410    0.7708617283950616    0.5284776119402963
     0.9141426024955450    0.5250407407407423    0.5109522388059702
     0.9148484848484841    0.8580209876543208    0.5169761194029832
     0.9568377896613214    0.6080049382716055    0.5018238805970157
     0.9555757575757582    0.7771444444444455    0.5031820895522401
 
  0.00000000E+00  0.00000000E+00  0.00000000E+00
  0.00000000E+00  0.00000000E+00  0.00000000E+00
  0.00000000E+00  0.00000000E+00  0.00000000E+00
  0.00000000E+00  0.00000000E+00  0.00000000E+00
  0.00000000E+00  0.00000000E+00  0.00000000E+00
  0.00000000E+00  0.00000000E+00  0.00000000E+00
  0.00000000E+00  0.00000000E+00  0.00000000E+00
  0.00000000E+00  0.00000000E+00  0.00000000E+00
  0.00000000E+00  0.00000000E+00  0.00000000E+00
  0.00000000E+00  0.00000000E+00  0.00000000E+00
  0.00000000E+00  0.00000000E+00  0.00000000E+00
  0.00000000E+00  0.00000000E+00  0.00000000E+00
  0.00000000E+00  0.00000000E+00  0.00000000E+00
  0.00000000E+00  0.00000000E+00  0.00000000E+00
  0.00000000E+00  0.00000000E+00  0.00000000E+00
  0.00000000E+00  0.00000000E+00  0.00000000E+00
  0.00000000E+00  0.00000000E+00  0.00000000E+00
  0.00000000E+00  0.00000000E+00  0.00000000E+00
  0.00000000E+00  0.00000000E+00  0.00000000E+00
  0.00000000E+00  0.00000000E+00  0.00000000E+00
  0.00000000E+00  0.00000000E+00  0.00000000E+00
  0.00000000E+00  0.00000000E+00  0.00000000E+00
  0.00000000E+00  0.00000000E+00  0.00000000E+00
  0.00000000E+00  0.00000000E+00  0.00000000E+00
  0.00000000E+00  0.00000000E+00  0.00000000E+00
  0.00000000E+00  0.00000000E+00  0.00000000E+00
  0.00000000E+00  0.00000000E+00  0.00000000E+00
  0.00000000E+00  0.00000000E+00  0.00000000E+00
  0.00000000E+00  0.00000000E+00  0.00000000E+00
  0.00000000E+00  0.00000000E+00  0.00000000E+00
  0.00000000E+00  0.00000000E+00  0.00000000E+00
  0.00000000E+00  0.00000000E+00  0.00000000E+00
  0.00000000E+00  0.00000000E+00  0.00000000E+00
  0.00000000E+00  0.00000000E+00  0.00000000E+00
  0.00000000E+00  0.00000000E+00  0.00000000E+00
  0.00000000E+00  0.00000000E+00  0.00000000E+00
  0.00000000E+00  0.00000000E+00  0.00000000E+00
  0.00000000E+00  0.00000000E+00  0.00000000E+00
  0.00000000E+00  0.00000000E+00  0.00000000E+00
  0.00000000E+00  0.00000000E+00  0.00000000E+00
  0.00000000E+00  0.00000000E+00  0.00000000E+00
  0.00000000E+00  0.00000000E+00  0.00000000E+00
  0.00000000E+00  0.00000000E+00  0.00000000E+00
  0.00000000E+00  0.00000000E+00  0.00000000E+00
  0.00000000E+00  0.00000000E+00  0.00000000E+00
  0.00000000E+00  0.00000000E+00  0.00000000E+00
  0.00000000E+00  0.00000000E+00  0.00000000E+00
  0.00000000E+00  0.00000000E+00  0.00000000E+00
  0.00000000E+00  0.00000000E+00  0.00000000E+00
  0.00000000E+00  0.00000000E+00  0.00000000E+00
  0.00000000E+00  0.00000000E+00  0.00000000E+00
  0.00000000E+00  0.00000000E+00  0.00000000E+00
  0.00000000E+00  0.00000000E+00  0.00000000E+00
  0.00000000E+00  0.00000000E+00  0.00000000E+00
  0.00000000E+00  0.00000000E+00  0.00000000E+00
  0.00000000E+00  0.00000000E+00  0.00000000E+00
  0.00000000E+00  0.00000000E+00  0.00000000E+00
  0.00000000E+00  0.00000000E+00  0.00000000E+00
  0.00000000E+00  0.00000000E+00  0.00000000E+00
  0.00000000E+00  0.00000000E+00  0.00000000E+00
  0.00000000E+00  0.00000000E+00  0.00000000E+00
  0.00000000E+00  0.00000000E+00  0.00000000E+00
  0.00000000E+00  0.00000000E+00  0.00000000E+00
  0.00000000E+00  0.00000000E+00  0.00000000E+00
  0.00000000E+00  0.00000000E+00  0.00000000E+00
  0.00000000E+00  0.00000000E+00  0.00000000E+00
  0.00000000E+00  0.00000000E+00  0.00000000E+00
  0.00000000E+00  0.00000000E+00  0.00000000E+00
  0.00000000E+00  0.00000000E+00  0.00000000E+00
  0.00000000E+00  0.00000000E+00  0.00000000E+00
  0.00000000E+00  0.00000000E+00  0.00000000E+00
  0.00000000E+00  0.00000000E+00  0.00000000E+00
  0.00000000E+00  0.00000000E+00  0.00000000E+00
  0.00000000E+00  0.00000000E+00  0.00000000E+00
  0.00000000E+00  0.00000000E+00  0.00000000E+00
  0.00000000E+00  0.00000000E+00  0.00000000E+00
  0.00000000E+00  0.00000000E+00  0.00000000E+00
  0.00000000E+00  0.00000000E+00  0.00000000E+00
  0.00000000E+00  0.00000000E+00  0.00000000E+00
  0.00000000E+00  0.00000000E+00  0.00000000E+00
  0.00000000E+00  0.00000000E+00  0.00000000E+00
  0.00000000E+00  0.00000000E+00  0.00000000E+00
  0.00000000E+00  0.00000000E+00  0.00000000E+00
  0.00000000E+00  0.00000000E+00  0.00000000E+00
  0.00000000E+00  0.00000000E+00  0.00000000E+00
  0.00000000E+00  0.00000000E+00  0.00000000E+00
  0.00000000E+00  0.00000000E+00  0.00000000E+00
  0.00000000E+00  0.00000000E+00  0.00000000E+00
  0.00000000E+00  0.00000000E+00  0.00000000E+00
  0.00000000E+00  0.00000000E+00  0.00000000E+00
  0.00000000E+00  0.00000000E+00  0.00000000E+00
  0.00000000E+00  0.00000000E+00  0.00000000E+00
