 C 
 1.0000000000000000
    28.0500000000000007    0.0000000000000000    0.0000000000000000
     0.0000000000000000    8.0999999999999996    0.0000000000000000
     0.0000000000000000    0.0000000000000000   33.5000000000000000
 C  
  92
Cartesian
  0.2637570000000000  0.8014650000000000 16.8049999999999997
  0.2272120000000000  2.2192900000000000 16.6759999999999984
  1.3749700000000000  0.1630750000000000 16.2320999999999991
  1.3715599999999999  2.8977200000000001 16.1912999999999982
  2.5590500000000000  0.8357450000000000 15.8359000000000005
  2.6044100000000001  2.2101299999999999 15.7997999999999994
  3.8169499999999998  0.1893360000000000 15.6260999999999992
  3.7742399999999998  2.8746200000000002 15.4936000000000007
  5.0125000000000002  0.8130610000000000 15.3719999999999999
  5.0343400000000003  2.2203499999999998 15.3362999999999996
  6.2849300000000001  0.1933680000000000 15.2696000000000005
  6.2722400000000000  2.9066900000000002 15.3406000000000002
  7.5241400000000001  0.8618590000000000 15.2394999999999996
  7.5180499999999997  2.2294100000000001 15.3203999999999994
  8.7976500000000009  0.2388960000000000 15.4658999999999995
  8.7620400000000007  2.8690500000000001 15.4360999999999997
 10.0198999999999998  0.8611510000000000 15.6104000000000003
 10.0063999999999993  2.2203499999999998 15.6721000000000004
 11.2881000000000000  0.1921670000000000 15.7310999999999996
 11.2081999999999997  2.9090500000000001 16.0594000000000001
 12.4149999999999991  0.8072480000000000 16.2692000000000014
 12.3912999999999993  2.2361200000000001 16.3284999999999982
 13.6211000000000002  0.1625850000000000 16.4801000000000002
 13.5874000000000006  2.8964699999999999 16.5925000000000011
 14.6879000000000008  0.8041050000000000 17.0945000000000000
 14.7165999999999997  2.2040799999999998 17.1609000000000016
 15.9191000000000003  0.1780070000000000 17.3756999999999984
 15.8983000000000008  2.8538600000000001 17.5169999999999995
 17.1488000000000014  0.8267550000000000 17.7666000000000004
 17.1078000000000010  2.1994300000000000 17.8500000000000014
 18.3888999999999996  0.1933920000000000 17.9033000000000015
 18.3187999999999995  2.8514300000000001 18.1665999999999990
 19.6341000000000001  0.8306700000000000 18.0963999999999992
 19.5880000000000010  2.2169699999999999 18.2414999999999985
 20.8516000000000012  0.1901680000000000 18.3517000000000010
 20.7913999999999994  2.8686099999999999 18.3671000000000006
 22.0783999999999985  0.8712230000000000 18.3619999999999983
 22.0720999999999989  2.2254399999999999 18.2404000000000011
 23.3137000000000008  0.2195740000000000 18.2688999999999986
 23.2589000000000006  2.9110200000000002 17.8753999999999991
 24.5546000000000006  0.8971370000000000 17.8892999999999986
 24.4864999999999995  2.2605900000000001 17.7136999999999993
 25.7198999999999991  0.1715440000000000 17.5265999999999984
 25.6903000000000006  2.9118700000000000 17.3177999999999983
 26.9450000000000003  0.8111020000000000 17.1922999999999995
 26.9134999999999991  2.1804500000000000 17.1621999999999986
  0.1124370000000000  4.9282599999999999 16.2567999999999984
  0.1410560000000000  6.3188599999999999 16.3155000000000001
  1.2976200000000000  4.2595000000000001 15.9515999999999991
  1.3324900000000000  6.9331600000000000 16.0920999999999985
  2.4690300000000001  4.8807700000000001 15.5062999999999995
  2.5670700000000002  6.2316300000000000 15.6845999999999997
  3.7217300000000000  4.2412999999999998 15.2700999999999993
  3.7321200000000001  6.9117400000000000 15.5771999999999995
  4.9000700000000004  4.9144199999999998 15.2757000000000005
  4.9542500000000000  6.3023999999999996 15.2972000000000001
  6.1991800000000001  4.2460599999999999 15.2957000000000001
  6.2600499999999997  6.9442800000000000 15.2523999999999997
  7.4831899999999996  4.9051999999999998 15.2361000000000004
  7.5163000000000002  6.2497199999999999 15.1960999999999995
  8.7617499999999993  4.2199700000000000 15.3576999999999995
  8.7792700000000004  6.9477399999999996 15.3527000000000005
  9.9891500000000004  4.9316199999999997 15.4504999999999999
 10.0129999999999999  6.2978699999999996 15.3371999999999993
 11.2370000000000001  4.2646400000000000 15.7162000000000006
 11.2881000000000000  6.9366399999999997 15.6427999999999994
 12.5088000000000008  4.8726000000000003 15.9071999999999996
 12.5259999999999998  6.2232300000000000 15.9602000000000004
 13.6791000000000000  4.2272900000000000 16.2788000000000004
 13.6568000000000005  6.9004899999999996 16.3602999999999987
 14.8567000000000000  4.8649699999999996 16.7090999999999994
 14.8724000000000007  6.2597199999999997 16.6503000000000014
 15.9709000000000003  4.2180099999999996 17.3592000000000013
 15.9884000000000004  6.9089200000000002 17.2271999999999998
 17.0845999999999982  4.8391299999999999 17.8491999999999997
 17.1173999999999999  6.2610700000000001 17.6735000000000007
 18.3173999999999992  4.2324700000000002 18.2149000000000001
 18.2948999999999984  6.9206599999999998 17.9812000000000012
 19.5452000000000012  4.9229500000000002 18.3345999999999982
 19.5619000000000014  6.2958200000000000 18.2318999999999996
 20.7897999999999996  4.2426899999999996 18.4067000000000007
 20.8166000000000011  6.9378900000000003 18.3566000000000003
 22.0452000000000012  4.8977700000000004 18.3161999999999985
 22.0611999999999995  6.2529000000000003 18.4574999999999996
 23.2567999999999984  4.3062399999999998 17.9457999999999984
 23.3133000000000017  6.9187399999999997 18.2347999999999999
 24.4664000000000001  4.9281600000000001 17.5188999999999986
 24.4496000000000002  6.2439799999999996 17.7040000000000006
 25.6417000000000002  4.2528300000000003 17.1169000000000011
 25.6615000000000002  6.9499700000000004 17.3186999999999998
 26.8393000000000015  4.9248399999999997 16.8110999999999997
 26.8038999999999987  6.2948700000000004 16.8566000000000003
