 C                                      
    1.000000000000000     
    28.0500000000000007    0.0000000000000000    0.0000000000000000
     0.0000000000000000    8.0999999999999996    0.0000000000000000
     0.0000000000000000    0.0000000000000000   33.5000000000000000
   C 
    92
Direct
     0.6144242424242421    0.3674888888888859    0.2465671641791047
     0.6157754010695200    0.5392283950617269    0.2450746268656729
     0.6583778966131888    0.2828259259259269    0.2480597014925365
     0.6589875222816417    0.6187135802469115    0.2456716417910485
     0.7025918003565081    0.3662938271604972    0.2552238805970148
     0.7031158645276321    0.5360679012345670    0.2534328358208953
     0.7465668449197835    0.2843111111111085    0.2561194029850711
     0.7469304812834210    0.6195777777777778    0.2525373134328390
     0.7920677361853805    0.3680716049382724    0.2564179104477589
     0.7918003565062364    0.5378518518518547    0.2537313432835830
     0.8366310160427801    0.2864555555555555    0.2507462686567195
     0.8359999999999985    0.6196740740740765    0.2447761194029852
     0.8812192513369013    0.3685469135802464    0.2444776119403045
     0.8795650623885933    0.5391098765432076    0.2420895522388022
     0.9243707664884155    0.2853765432098783    0.2328358208955237
     0.9221711229946550    0.6209320987654294    0.2277611940298527
     0.9670552584670205    0.3689148148148149    0.2253731343283576
     0.9662994652406383    0.5379518518518509    0.2214925373134378
     0.0085390730837815    0.2872209876543224    0.2101492537313447
     0.0068901247771862    0.6188716049382705    0.2053731343283616
     0.0511786096256657    0.3696962962962971    0.2002985074626906
     0.0502901960784286    0.5367493827160530    0.1976119402985077
     0.0935340463458090    0.2845580246913570    0.1886567164179098
     0.0923269162210332    0.6183382716049408    0.1838805970149266
     0.1357971479500861    0.3653296296296276    0.1785074626865679
     0.1354210338680915    0.5351518518518503    0.1758208955223921
     0.1785875222816387    0.2857432098765429    0.1698507462686578
     0.1783244206773631    0.6160456790123447    0.1662686567164187
     0.2229725490196088    0.3661456790123481    0.1695522388059700
     0.2224081996434961    0.5344271604938271    0.1665671641791064
     0.2668324420677379    0.2854567901234546    0.1680597014925382
     0.2665811051693439    0.6178012345678994    0.1662686567164187
     0.3103925133689813    0.3681086419753115    0.1743283582089532
     0.3107133689839543    0.5389049382716067    0.1740298507462654
     0.3542791443850248    0.2861074074074068    0.1791044776119435
     0.3549597147950081    0.6195543209876533    0.1779104477611995
     0.3959643493761149    0.3674740740740745    0.1931343283582123
     0.3960249554367223    0.5400444444444474    0.1919402985074683
     0.4385775401069552    0.2849530864197547    0.1988059701492588
     0.4389839572192500    0.6189222222222241    0.1988059701492588
     0.4801176470588260    0.3631395061728426    0.2134328358208961
     0.4799429590017823    0.5359370370370371    0.2134328358208961
     0.5240606060606083    0.2832654320987658    0.2197014925373111
     0.5233190730837762    0.6176814814814833    0.2208955223880622
     0.5630873440285171    0.3648259259259277    0.2358208955223944
     0.5628948306595376    0.5348666666666659    0.2355223880597066
     0.6187486631016057    0.8610654320987692    0.2265671641791016
     0.6184491978609614    0.0331966666666688    0.2286567164179161
     0.6605668449197850    0.7839913580246929    0.2370149253731384
     0.6593226381461648    0.1205848148148121    0.2400000000000020
     0.7034901960784339    0.8695864197530838    0.2411940298507460
     0.7028983957219239    0.0368361728395072    0.2417910447761145
     0.7470552584670216    0.7873407407407385    0.2456716417910485
     0.7470944741533003    0.1181180246913556    0.2483582089552243
     0.7917361853832432    0.8681111111111122    0.2429850746268727
     0.7910160427807469    0.0367193827160506    0.2438805970149289
     0.8350588235294083    0.7842345679012368    0.2367164179104506
     0.8349839572192508    0.1186543209876518    0.2429850746268727
     0.8769803921568595    0.8681765432098771    0.2280597014925405
     0.8772905525846681    0.0391337037037047    0.2313432835820919
     0.9189376114081966    0.7843148148148131    0.2188059701492548
     0.9212299465240648    0.1196861728395078    0.2238805970149258
     0.9610695187165774    0.8676567901234549    0.2059701492537371
     0.9615543672014226    0.0369099999999989    0.2083582089552252
     0.0040395008912668    0.7845580246913570    0.1967164179104444
     0.0056405347593582    0.1205819753086388    0.2014925373134346
     0.0464983957219260    0.8691827160493801    0.1835820895522460
     0.0456242424242390    0.0378137037037050    0.1853731343283584
     0.0894973262032082    0.7854049382716042    0.1758208955223921
     0.0905500891265589    0.1189359259259248    0.1797014925373119
     0.1323201426024951    0.8673222222222208    0.1653731343283553
     0.1329215686274523    0.0370744444444426    0.1671641791044749
     0.1771800356506219    0.7855901234567924    0.1614925373134355
     0.1780253119429602    0.1191865432098780    0.1629850746268673
     0.2222139037433166    0.8673234567901247    0.1579104477611963
     0.2229632798573959    0.0369792592592617    0.1588059701492526
     0.2666684491978586    0.7857259259259237    0.1605970149253793
     0.2674866310160411    0.1165569135802471    0.1611940298507477
     0.3120638146167565    0.8673012345679041    0.1620895522388111
     0.3126310160427792    0.0362929629629605    0.1617910447761233
     0.3562616755793258    0.7847518518518513    0.1707462686567212
     0.3558912655971511    0.1197387654320963    0.1716417910447774
     0.3998110516934048    0.8664160493827140    0.1770149253731361
     0.4001426024955421    0.0366120987654313    0.1764179104477677
     0.4420499108734433    0.7874135802469127    0.1895522388059661
     0.4421604278074867    0.1187896296296316    0.1895522388059661
     0.4854723707664874    0.8650271604938240    0.1958208955223881
     0.4853868092691656    0.0370191358024670    0.1958208955223881
     0.5269483065953651    0.7782777777777810    0.2095522388059692
     0.5266381461675564    0.1182188888888902    0.2107462686567132
     0.5691764705882321    0.8617160493827143    0.2146268656716472
     0.5697147950089132    0.0325485185185173    0.2158208955223913
 
  0.00000000E+00  0.00000000E+00  0.00000000E+00
  0.00000000E+00  0.00000000E+00  0.00000000E+00
  0.00000000E+00  0.00000000E+00  0.00000000E+00
  0.00000000E+00  0.00000000E+00  0.00000000E+00
  0.00000000E+00  0.00000000E+00  0.00000000E+00
  0.00000000E+00  0.00000000E+00  0.00000000E+00
  0.00000000E+00  0.00000000E+00  0.00000000E+00
  0.00000000E+00  0.00000000E+00  0.00000000E+00
  0.00000000E+00  0.00000000E+00  0.00000000E+00
  0.00000000E+00  0.00000000E+00  0.00000000E+00
  0.00000000E+00  0.00000000E+00  0.00000000E+00
  0.00000000E+00  0.00000000E+00  0.00000000E+00
  0.00000000E+00  0.00000000E+00  0.00000000E+00
  0.00000000E+00  0.00000000E+00  0.00000000E+00
  0.00000000E+00  0.00000000E+00  0.00000000E+00
  0.00000000E+00  0.00000000E+00  0.00000000E+00
  0.00000000E+00  0.00000000E+00  0.00000000E+00
  0.00000000E+00  0.00000000E+00  0.00000000E+00
  0.00000000E+00  0.00000000E+00  0.00000000E+00
  0.00000000E+00  0.00000000E+00  0.00000000E+00
  0.00000000E+00  0.00000000E+00  0.00000000E+00
  0.00000000E+00  0.00000000E+00  0.00000000E+00
  0.00000000E+00  0.00000000E+00  0.00000000E+00
  0.00000000E+00  0.00000000E+00  0.00000000E+00
  0.00000000E+00  0.00000000E+00  0.00000000E+00
  0.00000000E+00  0.00000000E+00  0.00000000E+00
  0.00000000E+00  0.00000000E+00  0.00000000E+00
  0.00000000E+00  0.00000000E+00  0.00000000E+00
  0.00000000E+00  0.00000000E+00  0.00000000E+00
  0.00000000E+00  0.00000000E+00  0.00000000E+00
  0.00000000E+00  0.00000000E+00  0.00000000E+00
  0.00000000E+00  0.00000000E+00  0.00000000E+00
  0.00000000E+00  0.00000000E+00  0.00000000E+00
  0.00000000E+00  0.00000000E+00  0.00000000E+00
  0.00000000E+00  0.00000000E+00  0.00000000E+00
  0.00000000E+00  0.00000000E+00  0.00000000E+00
  0.00000000E+00  0.00000000E+00  0.00000000E+00
  0.00000000E+00  0.00000000E+00  0.00000000E+00
  0.00000000E+00  0.00000000E+00  0.00000000E+00
  0.00000000E+00  0.00000000E+00  0.00000000E+00
  0.00000000E+00  0.00000000E+00  0.00000000E+00
  0.00000000E+00  0.00000000E+00  0.00000000E+00
  0.00000000E+00  0.00000000E+00  0.00000000E+00
  0.00000000E+00  0.00000000E+00  0.00000000E+00
  0.00000000E+00  0.00000000E+00  0.00000000E+00
  0.00000000E+00  0.00000000E+00  0.00000000E+00
  0.00000000E+00  0.00000000E+00  0.00000000E+00
  0.00000000E+00  0.00000000E+00  0.00000000E+00
  0.00000000E+00  0.00000000E+00  0.00000000E+00
  0.00000000E+00  0.00000000E+00  0.00000000E+00
  0.00000000E+00  0.00000000E+00  0.00000000E+00
  0.00000000E+00  0.00000000E+00  0.00000000E+00
  0.00000000E+00  0.00000000E+00  0.00000000E+00
  0.00000000E+00  0.00000000E+00  0.00000000E+00
  0.00000000E+00  0.00000000E+00  0.00000000E+00
  0.00000000E+00  0.00000000E+00  0.00000000E+00
  0.00000000E+00  0.00000000E+00  0.00000000E+00
  0.00000000E+00  0.00000000E+00  0.00000000E+00
  0.00000000E+00  0.00000000E+00  0.00000000E+00
  0.00000000E+00  0.00000000E+00  0.00000000E+00
  0.00000000E+00  0.00000000E+00  0.00000000E+00
  0.00000000E+00  0.00000000E+00  0.00000000E+00
  0.00000000E+00  0.00000000E+00  0.00000000E+00
  0.00000000E+00  0.00000000E+00  0.00000000E+00
  0.00000000E+00  0.00000000E+00  0.00000000E+00
  0.00000000E+00  0.00000000E+00  0.00000000E+00
  0.00000000E+00  0.00000000E+00  0.00000000E+00
  0.00000000E+00  0.00000000E+00  0.00000000E+00
  0.00000000E+00  0.00000000E+00  0.00000000E+00
  0.00000000E+00  0.00000000E+00  0.00000000E+00
  0.00000000E+00  0.00000000E+00  0.00000000E+00
  0.00000000E+00  0.00000000E+00  0.00000000E+00
  0.00000000E+00  0.00000000E+00  0.00000000E+00
  0.00000000E+00  0.00000000E+00  0.00000000E+00
  0.00000000E+00  0.00000000E+00  0.00000000E+00
  0.00000000E+00  0.00000000E+00  0.00000000E+00
  0.00000000E+00  0.00000000E+00  0.00000000E+00
  0.00000000E+00  0.00000000E+00  0.00000000E+00
  0.00000000E+00  0.00000000E+00  0.00000000E+00
  0.00000000E+00  0.00000000E+00  0.00000000E+00
  0.00000000E+00  0.00000000E+00  0.00000000E+00
  0.00000000E+00  0.00000000E+00  0.00000000E+00
  0.00000000E+00  0.00000000E+00  0.00000000E+00
  0.00000000E+00  0.00000000E+00  0.00000000E+00
  0.00000000E+00  0.00000000E+00  0.00000000E+00
  0.00000000E+00  0.00000000E+00  0.00000000E+00
  0.00000000E+00  0.00000000E+00  0.00000000E+00
  0.00000000E+00  0.00000000E+00  0.00000000E+00
  0.00000000E+00  0.00000000E+00  0.00000000E+00
  0.00000000E+00  0.00000000E+00  0.00000000E+00
  0.00000000E+00  0.00000000E+00  0.00000000E+00
  0.00000000E+00  0.00000000E+00  0.00000000E+00
