 C                                      
    1.000000000000000     
    28.0500000000000007    0.0000000000000000    0.0000000000000000
     0.0000000000000000    8.0999999999999996    0.0000000000000000
     0.0000000000000000    0.0000000000000000   33.5000000000000000
   C 
    92
Direct
     0.0118328698752208    0.1008291358024707    0.5275044776119415
     0.0107587522281634    0.2722037037037026    0.5226567164179130
     0.0543094474153278    0.0198388888888914    0.5157343283582065
     0.0483065953654176    0.3577493827160509    0.5063970149253763
     0.0967354723707672    0.1023295061728362    0.5068447761194008
     0.0947083778966160    0.2759049382716086    0.5023402985074625
     0.1394545454545479    0.0184082716049403    0.4979820895522380
     0.1353857397504470    0.3628679012345657    0.4900895522388069
     0.1796131907308407    0.1049965432098787    0.4874119402985073
     0.1798795008912677    0.2694604938271610    0.4815850746268637
     0.2221575757575778    0.0162083950617316    0.4746537313432810
     0.2203625668449192    0.3445432098765409    0.4649671641791073
     0.2638534759358322    0.1000540740740732    0.4639134328358239
     0.2637885918003562    0.2648518518518514    0.4570805970149223
     0.3091636363636354    0.0127865432098773    0.4617104477611917
     0.3088313725490224    0.3528814814814822    0.4477194029850722
     0.3527062388591773    0.1000098765432114    0.4572000000000003
     0.3531935828876982    0.2709296296296273    0.4502805970149240
     0.3958039215686284    0.0202958024691355    0.4644358208955239
     0.3970160427807485    0.3535827160493810    0.4559820895522364
     0.4395401069518741    0.1047071604938239    0.4670179104477583
     0.4427450980392180    0.2714888888888893    0.4610358208955248
     0.4812905525846674    0.0224830864197543    0.4797044776119392
     0.4866131907308358    0.3549308641975344    0.4632865671641824
     0.5260463458110536    0.1032528395061760    0.4841104477611964
     0.5294795008912629    0.2692172839506171    0.4765134328358229
     0.5655472370766503    0.0249072839506184    0.5028388059701498
     0.5705204991087314    0.3491209876543238    0.4903164179104493
     0.6093547237076677    0.1052575308642005    0.5157014925373105
     0.6116648841354717    0.2691543209876528    0.5062776119402983
     0.6503101604278072    0.0231669135802477    0.5289134328358216
     0.6535222816399298    0.3532679012345668    0.5151701492537342
     0.6960855614973269    0.1042929629629654    0.5343223880596994
     0.6965561497326220    0.2685086419753091    0.5265014925373137
     0.7378823529411775    0.0243807407407388    0.5445552238806002
     0.7397076648841363    0.3529172839506174    0.5303194029850715
     0.7814901960784297    0.1132625925925907    0.5471880597014902
     0.7829946524064155    0.2793580246913550    0.5396179104477596
     0.8284278074866336    0.0305662962962998    0.5491940298507458
     0.8287450980392137    0.3601617283950631    0.5362567164179097
     0.8753796791443875    0.1118246913580236    0.5480358208955209
     0.8752655971479513    0.2781765432098737    0.5404686567164205
     0.9178253119429556    0.0253330864197565    0.5460388059701486
     0.9191550802139048    0.3637580246913572    0.5350149253731331
     0.9610730837789632    0.1096427160493860    0.5412895522388084
     0.9630089126559724    0.2771333333333317    0.5352268656716390
     0.0093228520499125    0.6089975308642011    0.5078597014925350
     0.0098580748663082    0.7737222222222258    0.5135492537313411
     0.0488449197860987    0.5216358024691345    0.4978268656716409
     0.0527311942959017    0.8535098765432068    0.5080238805970154
     0.0907679144385014    0.6045000000000016    0.4898597014925343
     0.0956791443850236    0.7680753086419756    0.4966955223880589
     0.1320901960784298    0.5235962962962972    0.4774000000000029
     0.1373180035650634    0.8507296296296332    0.4887671641791016
     0.1767636363636385    0.6027765432098775    0.4659731343283582
     0.1785568627450971    0.7674172839506141    0.4744656716417879
     0.2200484848484834    0.5160851851851831    0.4623611940298531
     0.2211686274509788    0.8473024691358049    0.4694298507462662
     0.2640545454545489    0.5959543209876514    0.4588388059701458
     0.2650217468805707    0.7669432098765441    0.4608746268656745
     0.3095037433155099    0.5173098765432087    0.4501492537313467
     0.3081636363636377    0.8443962962962956    0.4633014925373118
     0.3534199643493778    0.5994444444444440    0.4505910447761181
     0.3515372549019631    0.7605580246913561    0.4628656716417936
     0.3990623885918012    0.5231617283950598    0.4550029850746284
     0.3933618538324453    0.8481074074074044    0.4717880597014954
     0.4394010695187163    0.5977814814814835    0.4703194029850764
     0.4377575757575727    0.7631419753086419    0.4803671641791070
     0.4839465240641729    0.5221888888888913    0.4694776119402988
     0.4803137254901984    0.8497296296296284    0.4860238805970170
     0.5255971479500872    0.6028938271604929    0.4815850746268637
     0.5235472370766487    0.7717567901234546    0.4908895522388050
     0.5693119429590041    0.5163925925925952    0.4917373134328358
     0.5654295900178283    0.8559111111111122    0.5054805970149232
     0.6092655971479530    0.6015185185185175    0.5083761194029819
     0.6072263814616790    0.7709185185185206    0.5147761194029883
     0.6527486631016046    0.5255111111111077    0.5145701492537285
     0.6510588235294108    0.8577827160493854    0.5305791044776100
     0.6971336898395748    0.6085493827160491    0.5263910447761191
     0.6952192513369013    0.7789432098765445    0.5330089552238775
     0.7405169340463473    0.5235580246913614    0.5255253731343288
     0.7389233511586468    0.8525283950617251    0.5420955223880597
     0.7845418894830658    0.6129975308641988    0.5279970149253757
     0.7838467023172910    0.7776827160493838    0.5403492537313426
     0.8275151515151506    0.5258234567901212    0.5305671641791037
     0.8285704099821771    0.8646827160493800    0.5416507462686582
     0.8722531194295868    0.6116962962962944    0.5315582089552251
     0.8718930481283422    0.7808901234567927    0.5363582089552210
     0.9167629233511576    0.5259456790123451    0.5271253731343251
     0.9189839572192540    0.8620641975308629    0.5374955223880562
     0.9604705882352960    0.6123172839506168    0.5230985074626844
     0.9600819964349370    0.7825604938271624    0.5255701492537312
 
  0.00000000E+00  0.00000000E+00  0.00000000E+00
  0.00000000E+00  0.00000000E+00  0.00000000E+00
  0.00000000E+00  0.00000000E+00  0.00000000E+00
  0.00000000E+00  0.00000000E+00  0.00000000E+00
  0.00000000E+00  0.00000000E+00  0.00000000E+00
  0.00000000E+00  0.00000000E+00  0.00000000E+00
  0.00000000E+00  0.00000000E+00  0.00000000E+00
  0.00000000E+00  0.00000000E+00  0.00000000E+00
  0.00000000E+00  0.00000000E+00  0.00000000E+00
  0.00000000E+00  0.00000000E+00  0.00000000E+00
  0.00000000E+00  0.00000000E+00  0.00000000E+00
  0.00000000E+00  0.00000000E+00  0.00000000E+00
  0.00000000E+00  0.00000000E+00  0.00000000E+00
  0.00000000E+00  0.00000000E+00  0.00000000E+00
  0.00000000E+00  0.00000000E+00  0.00000000E+00
  0.00000000E+00  0.00000000E+00  0.00000000E+00
  0.00000000E+00  0.00000000E+00  0.00000000E+00
  0.00000000E+00  0.00000000E+00  0.00000000E+00
  0.00000000E+00  0.00000000E+00  0.00000000E+00
  0.00000000E+00  0.00000000E+00  0.00000000E+00
  0.00000000E+00  0.00000000E+00  0.00000000E+00
  0.00000000E+00  0.00000000E+00  0.00000000E+00
  0.00000000E+00  0.00000000E+00  0.00000000E+00
  0.00000000E+00  0.00000000E+00  0.00000000E+00
  0.00000000E+00  0.00000000E+00  0.00000000E+00
  0.00000000E+00  0.00000000E+00  0.00000000E+00
  0.00000000E+00  0.00000000E+00  0.00000000E+00
  0.00000000E+00  0.00000000E+00  0.00000000E+00
  0.00000000E+00  0.00000000E+00  0.00000000E+00
  0.00000000E+00  0.00000000E+00  0.00000000E+00
  0.00000000E+00  0.00000000E+00  0.00000000E+00
  0.00000000E+00  0.00000000E+00  0.00000000E+00
  0.00000000E+00  0.00000000E+00  0.00000000E+00
  0.00000000E+00  0.00000000E+00  0.00000000E+00
  0.00000000E+00  0.00000000E+00  0.00000000E+00
  0.00000000E+00  0.00000000E+00  0.00000000E+00
  0.00000000E+00  0.00000000E+00  0.00000000E+00
  0.00000000E+00  0.00000000E+00  0.00000000E+00
  0.00000000E+00  0.00000000E+00  0.00000000E+00
  0.00000000E+00  0.00000000E+00  0.00000000E+00
  0.00000000E+00  0.00000000E+00  0.00000000E+00
  0.00000000E+00  0.00000000E+00  0.00000000E+00
  0.00000000E+00  0.00000000E+00  0.00000000E+00
  0.00000000E+00  0.00000000E+00  0.00000000E+00
  0.00000000E+00  0.00000000E+00  0.00000000E+00
  0.00000000E+00  0.00000000E+00  0.00000000E+00
  0.00000000E+00  0.00000000E+00  0.00000000E+00
  0.00000000E+00  0.00000000E+00  0.00000000E+00
  0.00000000E+00  0.00000000E+00  0.00000000E+00
  0.00000000E+00  0.00000000E+00  0.00000000E+00
  0.00000000E+00  0.00000000E+00  0.00000000E+00
  0.00000000E+00  0.00000000E+00  0.00000000E+00
  0.00000000E+00  0.00000000E+00  0.00000000E+00
  0.00000000E+00  0.00000000E+00  0.00000000E+00
  0.00000000E+00  0.00000000E+00  0.00000000E+00
  0.00000000E+00  0.00000000E+00  0.00000000E+00
  0.00000000E+00  0.00000000E+00  0.00000000E+00
  0.00000000E+00  0.00000000E+00  0.00000000E+00
  0.00000000E+00  0.00000000E+00  0.00000000E+00
  0.00000000E+00  0.00000000E+00  0.00000000E+00
  0.00000000E+00  0.00000000E+00  0.00000000E+00
  0.00000000E+00  0.00000000E+00  0.00000000E+00
  0.00000000E+00  0.00000000E+00  0.00000000E+00
  0.00000000E+00  0.00000000E+00  0.00000000E+00
  0.00000000E+00  0.00000000E+00  0.00000000E+00
  0.00000000E+00  0.00000000E+00  0.00000000E+00
  0.00000000E+00  0.00000000E+00  0.00000000E+00
  0.00000000E+00  0.00000000E+00  0.00000000E+00
  0.00000000E+00  0.00000000E+00  0.00000000E+00
  0.00000000E+00  0.00000000E+00  0.00000000E+00
  0.00000000E+00  0.00000000E+00  0.00000000E+00
  0.00000000E+00  0.00000000E+00  0.00000000E+00
  0.00000000E+00  0.00000000E+00  0.00000000E+00
  0.00000000E+00  0.00000000E+00  0.00000000E+00
  0.00000000E+00  0.00000000E+00  0.00000000E+00
  0.00000000E+00  0.00000000E+00  0.00000000E+00
  0.00000000E+00  0.00000000E+00  0.00000000E+00
  0.00000000E+00  0.00000000E+00  0.00000000E+00
  0.00000000E+00  0.00000000E+00  0.00000000E+00
  0.00000000E+00  0.00000000E+00  0.00000000E+00
  0.00000000E+00  0.00000000E+00  0.00000000E+00
  0.00000000E+00  0.00000000E+00  0.00000000E+00
  0.00000000E+00  0.00000000E+00  0.00000000E+00
  0.00000000E+00  0.00000000E+00  0.00000000E+00
  0.00000000E+00  0.00000000E+00  0.00000000E+00
  0.00000000E+00  0.00000000E+00  0.00000000E+00
  0.00000000E+00  0.00000000E+00  0.00000000E+00
  0.00000000E+00  0.00000000E+00  0.00000000E+00
  0.00000000E+00  0.00000000E+00  0.00000000E+00
  0.00000000E+00  0.00000000E+00  0.00000000E+00
  0.00000000E+00  0.00000000E+00  0.00000000E+00
  0.00000000E+00  0.00000000E+00  0.00000000E+00
