 C 
 1.0000000000000000
    28.0500000000000007    0.0000000000000000    0.0000000000000000
     0.0000000000000000    8.0999999999999996    0.0000000000000000
     0.0000000000000000    0.0000000000000000   33.5000000000000000
 C  
  92
Cartesian
  0.1628650000000000  0.8368160000000000 18.4585000000000008
  0.1841460000000000  2.2052800000000001 18.2476999999999983
  1.3686799999999999  0.1901840000000000 18.4483999999999995
  1.3836200000000001  2.9091100000000001 18.0867000000000004
  2.6562299999999999  0.9216520000000000 18.1871000000000009
  2.6441499999999998  2.2196199999999999 17.8948999999999998
  3.9140799999999998  0.2295320000000000 18.0559000000000012
  3.8602699999999999  2.9469599999999998 17.6862999999999992
  5.1317100000000000  0.8947990000000000 17.7288999999999994
  5.0965900000000000  2.2341500000000001 17.6631999999999998
  6.3663800000000004  0.2387930000000000 17.4827000000000012
  6.3153600000000001  2.9076599999999999 17.2747999999999990
  7.4393799999999999  0.8507280000000000 16.9133999999999993
  7.5043100000000003  2.2411799999999999 16.9644000000000013
  8.5849899999999995  0.1573670000000000 16.4258999999999986
  8.6675100000000000  2.8662700000000001 16.4499999999999993
  9.8163599999999995  0.8406169999999999 16.0906999999999982
  9.8044200000000004  2.1870599999999998 16.0326999999999984
 11.0092999999999996  0.1754140000000000 15.6974999999999998
 11.0094999999999992  2.8533499999999998 15.6658000000000008
 12.2292000000000005  0.8106640000000001 15.4003999999999994
 12.2361000000000004  2.1550699999999998 15.5139999999999993
 13.4326000000000008  0.1157070000000000 15.1811000000000007
 13.4905000000000008  2.8129599999999999 15.2606999999999999
 14.6912000000000003  0.7544520000000000 15.1717999999999993
 14.7243999999999993  2.1084000000000001 15.1423000000000005
 15.9417000000000009  0.1459010000000000 15.3244000000000007
 16.0016999999999996  2.7985000000000002 15.0035000000000007
 17.1705000000000005  0.8328040000000000 15.5593000000000004
 17.2215999999999987  2.2136600000000000 15.2272999999999996
 18.4292000000000016  0.1904400000000000 15.9598999999999993
 18.4924999999999997  2.8694600000000001 15.4230999999999998
 19.6578000000000017  0.8127440000000000 16.1265999999999998
 19.6804999999999986  2.1510799999999999 15.7517999999999994
 20.8576000000000015  0.2383050000000000 16.5750999999999991
 20.9583000000000013  2.8700500000000000 16.0448999999999984
 22.0514000000000010  0.8878480000000000 16.8371999999999993
 22.1513999999999989  2.2437600000000000 16.5638000000000005
 23.1554000000000002  0.1755950000000000 17.3404999999999987
 23.3826999999999998  2.8966300000000000 16.9304999999999986
 24.4187000000000012  0.8410020000000000 17.6254999999999988
 24.5104000000000006  2.1777799999999998 17.3636000000000017
 25.5477999999999987  0.2031290000000000 18.1549000000000014
 25.6830999999999996  2.8790399999999998 17.7685999999999993
 26.7665000000000006  0.8349490000000001 18.4211999999999989
 26.8017000000000003  2.2217099999999999 18.2341000000000015
  0.1351590000000000  4.8910000000000000 18.6298999999999992
  0.2164950000000000  6.2927600000000004 18.7622000000000000
  1.3707000000000000  4.2617900000000004 18.4055999999999997
  1.4109000000000000  6.9765699999999997 18.6492000000000004
  2.6268600000000002  4.9217800000000000 18.2886999999999986
  2.6667600000000000  6.2893699999999999 18.5104000000000006
  3.8329399999999998  4.2980400000000003 17.8783999999999992
  3.9057200000000001  6.9740200000000003 18.2515999999999998
  5.1178900000000001  4.9353999999999996 17.8706999999999994
  5.1440200000000003  6.3517500000000000 17.8639000000000010
  6.2955300000000003  4.2710400000000002 17.4089999999999989
  6.3229899999999999  6.9242900000000001 17.4908999999999999
  7.4536499999999997  4.9093200000000001 16.9226999999999990
  7.4776499999999997  6.2569100000000004 16.9475000000000016
  8.5754500000000000  4.2139499999999996 16.3608000000000011
  8.6294100000000000  6.8970000000000002 16.4333999999999989
  9.7314500000000006  4.9033400000000000 15.8511000000000006
  9.7776599999999991  6.2556099999999999 15.8475999999999999
 11.0176999999999996  4.2215400000000001 15.4915000000000003
 11.0159000000000002  6.8989700000000003 15.5974000000000004
 12.2157000000000000  4.8281700000000001 15.2002000000000006
 12.1944999999999997  6.1869800000000001 15.2906999999999993
 13.4443999999999999  4.1465100000000001 15.0759000000000007
 13.4649000000000001  6.8359100000000002 15.1196000000000002
 14.6791999999999998  4.7949099999999998 15.0086999999999993
 14.7141000000000002  6.1786199999999996 15.0694999999999997
 15.9995999999999992  4.2236900000000004 15.0778999999999996
 15.9359999999999999  6.8846699999999998 15.2418999999999993
 17.2066000000000017  4.8872099999999996 15.2822999999999993
 17.1818999999999988  6.2270099999999999 15.4809999999999999
 18.5179000000000009  4.2540699999999996 15.4298000000000002
 18.4234000000000009  6.9164199999999996 15.9090000000000007
 19.6737000000000002  4.8998799999999996 15.9664000000000001
 19.5809999999999995  6.2222499999999998 16.2637000000000000
 20.9233000000000011  4.2289300000000001 16.1981000000000002
 20.7802000000000007  6.9223999999999997 16.6454999999999984
 22.1360999999999990  4.9085400000000003 16.6060000000000016
 21.9762999999999984  6.2098199999999997 16.9343000000000004
 23.3834000000000017  4.2577100000000003 16.9560999999999993
 23.1738999999999997  6.9231400000000001 17.3114999999999988
 24.5085000000000015  4.9219600000000003 17.4327000000000005
 24.3676999999999992  6.2589399999999999 17.7742000000000004
 25.7014999999999993  4.2033399999999999 17.8002000000000002
 25.5172999999999988  6.9358300000000002 18.2405000000000008
 26.7717999999999989  4.9150700000000001 18.3713000000000015
 26.7113000000000014  6.3353799999999998 18.4884999999999984
