 C                                      
    1.000000000000000     
    28.0500000000000007    0.0000000000000000    0.0000000000000000
     0.0000000000000000    8.0999999999999996    0.0000000000000000
     0.0000000000000000    0.0000000000000000   33.5000000000000000
   C 
    92
Direct
     0.0133153654188973    0.1151464197530885    0.5186119402985057
     0.0135195721925143    0.2870234567901235    0.5168985074626846
     0.0505440285204983    0.0225534567901207    0.5007313432835829
     0.0468791443850236    0.3566518518518507    0.4932179104477612
     0.0929807486631020    0.1061020987654331    0.4922686567164192
     0.0914716577540133    0.2786012345679012    0.4886268656716410
     0.1340039215686275    0.0296525925925906    0.4774477611940284
     0.1305828877005339    0.3492012345679001    0.4681283582089577
     0.1773490196078455    0.1143032098765460    0.4718776119403003
     0.1762819964349376    0.2793814814814795    0.4668417910447786
     0.2209376114081962    0.0267465432098746    0.4646447761193997
     0.2183547237076624    0.3600444444444477    0.4562656716417877
     0.2651500891265570    0.1127790123456762    0.4617134328358219
     0.2632106951871691    0.2842234567901230    0.4556507462686596
     0.3067372549019609    0.0181814814814842    0.4679641791044773
     0.3079682709447411    0.3487925925925950    0.4571164179104485
     0.3516652406417080    0.0994941975308663    0.4697999999999993
     0.3519629233511594    0.2722876543209907    0.4691850746268642
     0.3967165775401043    0.0183743209876539    0.4720477611940268
     0.3975294117647081    0.3466962962962938    0.4714417910447750
     0.4386809269162200    0.0952870370370391    0.4828208955223872
     0.4401069518716554    0.2717370370370347    0.4834776119403017
     0.4825490196078448    0.0178324691358043    0.4885522388059726
     0.4814688057040968    0.3476975308641954    0.4910895522388046
     0.5261140819964325    0.0997616049382728    0.5023611940298522
     0.5243101604278095    0.2733592592592586    0.5030358208955192
     0.5699037433155070    0.0170945679012320    0.5095880597014926
     0.5685133689839574    0.3508913580246897    0.5137940298507431
     0.6117219251336934    0.1010977777777811    0.5230417910447756
     0.6104991087344018    0.2711172839506162    0.5288686567164191
     0.6539215686274531    0.0244566666666657    0.5292119402985094
     0.6532869875222787    0.3562913580246914    0.5344029850746281
     0.6956684491978606    0.1103151851851862    0.5408507462686600
     0.6966666666666654    0.2734024691358030    0.5463731343283555
     0.7403600713012466    0.0248708641975313    0.5434507462686540
     0.7422531194295914    0.3577567901234602    0.5514059701492542
     0.7850588235294111    0.1036223456790140    0.5487910447761166
     0.7871087344028496    0.2704320987654327    0.5505343283582107
     0.8306096256684512    0.0210576543209910    0.5468955223880627
     0.8313654188948334    0.3542654320987637    0.5465283582089526
     0.8767914438502658    0.1033369135802502    0.5469253731343287
     0.8765098039215715    0.2677259259259230    0.5446656716417877
     0.9199572192513372    0.0191695061728367    0.5342388059701477
     0.9214295900178229    0.3521111111111139    0.5346567164179135
     0.9627237076648854    0.1001074074074069    0.5324029850746257
     0.9642709447415356    0.2704000000000022    0.5312208955223880
     0.0021074331550821    0.6041691358024721    0.4931432835820928
     0.0058139037433165    0.7730000000000032    0.5002746268656750
     0.0435304812834190    0.5187901234567889    0.4815044776119421
     0.0481194295900167    0.8561185185185209    0.4937522388059676
     0.0837408199643477    0.6029370370370373    0.4685970149253720
     0.0868003565062381    0.7760666666666651    0.4767611940298480
     0.1270402852049912    0.5186444444444476    0.4592746268656711
     0.1291183600713026    0.8581864197530891    0.4705552238805950
     0.1724270944741519    0.6078753086419724    0.4545731343283563
     0.1731290552584639    0.7755592592592606    0.4583373134328355
     0.2167493761140804    0.5271839506172853    0.4498656716417884
     0.2175711229946558    0.8619950617283934    0.4585432835820882
     0.2624142602495567    0.6026876543209880    0.4510805970149221
     0.2624327985739754    0.7761530864197539    0.4560925373134310
     0.3073950089126569    0.5204222222222228    0.4515223880597006
     0.3067147950089151    0.8474382716049362    0.4640059701492518
     0.3530705882352976    0.6002148148148123    0.4569074626865657
     0.3514991087344015    0.7708543209876524    0.4579074626865705
     0.3981746880570398    0.5177790123456774    0.4667283582089539
     0.3983778966131908    0.8502432098765453    0.4638029850746292
     0.4436577540106938    0.6024123456790136    0.4703104477611930
     0.4424884135472382    0.7672876543209881    0.4687253731343262
     0.4856434937611382    0.5176012345678984    0.4816417910447797
     0.4864313725490206    0.8528765432098737    0.4794835820895500
     0.5286666666666662    0.6002641975308620    0.4915582089552260
     0.5288057040998240    0.7701617283950597    0.4894985074626845
     0.5699893048128359    0.5175987654320977    0.5073432835820881
     0.5722816399286970    0.8545938271604925    0.5017970149253728
     0.6126310160427835    0.5996506172839489    0.5144477611940275
     0.6141105169340477    0.7718938271604969    0.5120298507462664
     0.6540891265597182    0.5216395061728392    0.5274567164179089
     0.6561889483065926    0.8542308641975325    0.5237820895522418
     0.6975080213903766    0.6029567901234572    0.5349462686567179
     0.6971265597147962    0.7703086419753120    0.5328059701492549
     0.7437040998217483    0.5223703703703677    0.5425283582089548
     0.7397468805704079    0.8594185185185168    0.5404477611940308
     0.7890445632798588    0.6114962962962949    0.5398805970149283
     0.7864527629233535    0.7764370370370344    0.5400507462686548
     0.8336791443850302    0.5197518518518507    0.5398089552238829
     0.8304278074866289    0.8589802469135819    0.5402417910447781
     0.8759037433155115    0.5969481481481509    0.5359791044776117
     0.8763458110516922    0.7691518518518521    0.5358358208955210
     0.9196577540106929    0.5146333333333359    0.5277402985074602
     0.9199821746880588    0.8566382716049361    0.5286716417910426
     0.9582210338680923    0.6035086419753100    0.5138895522388083
     0.9596577540106921    0.7804271604938293    0.5162089552238811
 
  0.00000000E+00  0.00000000E+00  0.00000000E+00
  0.00000000E+00  0.00000000E+00  0.00000000E+00
  0.00000000E+00  0.00000000E+00  0.00000000E+00
  0.00000000E+00  0.00000000E+00  0.00000000E+00
  0.00000000E+00  0.00000000E+00  0.00000000E+00
  0.00000000E+00  0.00000000E+00  0.00000000E+00
  0.00000000E+00  0.00000000E+00  0.00000000E+00
  0.00000000E+00  0.00000000E+00  0.00000000E+00
  0.00000000E+00  0.00000000E+00  0.00000000E+00
  0.00000000E+00  0.00000000E+00  0.00000000E+00
  0.00000000E+00  0.00000000E+00  0.00000000E+00
  0.00000000E+00  0.00000000E+00  0.00000000E+00
  0.00000000E+00  0.00000000E+00  0.00000000E+00
  0.00000000E+00  0.00000000E+00  0.00000000E+00
  0.00000000E+00  0.00000000E+00  0.00000000E+00
  0.00000000E+00  0.00000000E+00  0.00000000E+00
  0.00000000E+00  0.00000000E+00  0.00000000E+00
  0.00000000E+00  0.00000000E+00  0.00000000E+00
  0.00000000E+00  0.00000000E+00  0.00000000E+00
  0.00000000E+00  0.00000000E+00  0.00000000E+00
  0.00000000E+00  0.00000000E+00  0.00000000E+00
  0.00000000E+00  0.00000000E+00  0.00000000E+00
  0.00000000E+00  0.00000000E+00  0.00000000E+00
  0.00000000E+00  0.00000000E+00  0.00000000E+00
  0.00000000E+00  0.00000000E+00  0.00000000E+00
  0.00000000E+00  0.00000000E+00  0.00000000E+00
  0.00000000E+00  0.00000000E+00  0.00000000E+00
  0.00000000E+00  0.00000000E+00  0.00000000E+00
  0.00000000E+00  0.00000000E+00  0.00000000E+00
  0.00000000E+00  0.00000000E+00  0.00000000E+00
  0.00000000E+00  0.00000000E+00  0.00000000E+00
  0.00000000E+00  0.00000000E+00  0.00000000E+00
  0.00000000E+00  0.00000000E+00  0.00000000E+00
  0.00000000E+00  0.00000000E+00  0.00000000E+00
  0.00000000E+00  0.00000000E+00  0.00000000E+00
  0.00000000E+00  0.00000000E+00  0.00000000E+00
  0.00000000E+00  0.00000000E+00  0.00000000E+00
  0.00000000E+00  0.00000000E+00  0.00000000E+00
  0.00000000E+00  0.00000000E+00  0.00000000E+00
  0.00000000E+00  0.00000000E+00  0.00000000E+00
  0.00000000E+00  0.00000000E+00  0.00000000E+00
  0.00000000E+00  0.00000000E+00  0.00000000E+00
  0.00000000E+00  0.00000000E+00  0.00000000E+00
  0.00000000E+00  0.00000000E+00  0.00000000E+00
  0.00000000E+00  0.00000000E+00  0.00000000E+00
  0.00000000E+00  0.00000000E+00  0.00000000E+00
  0.00000000E+00  0.00000000E+00  0.00000000E+00
  0.00000000E+00  0.00000000E+00  0.00000000E+00
  0.00000000E+00  0.00000000E+00  0.00000000E+00
  0.00000000E+00  0.00000000E+00  0.00000000E+00
  0.00000000E+00  0.00000000E+00  0.00000000E+00
  0.00000000E+00  0.00000000E+00  0.00000000E+00
  0.00000000E+00  0.00000000E+00  0.00000000E+00
  0.00000000E+00  0.00000000E+00  0.00000000E+00
  0.00000000E+00  0.00000000E+00  0.00000000E+00
  0.00000000E+00  0.00000000E+00  0.00000000E+00
  0.00000000E+00  0.00000000E+00  0.00000000E+00
  0.00000000E+00  0.00000000E+00  0.00000000E+00
  0.00000000E+00  0.00000000E+00  0.00000000E+00
  0.00000000E+00  0.00000000E+00  0.00000000E+00
  0.00000000E+00  0.00000000E+00  0.00000000E+00
  0.00000000E+00  0.00000000E+00  0.00000000E+00
  0.00000000E+00  0.00000000E+00  0.00000000E+00
  0.00000000E+00  0.00000000E+00  0.00000000E+00
  0.00000000E+00  0.00000000E+00  0.00000000E+00
  0.00000000E+00  0.00000000E+00  0.00000000E+00
  0.00000000E+00  0.00000000E+00  0.00000000E+00
  0.00000000E+00  0.00000000E+00  0.00000000E+00
  0.00000000E+00  0.00000000E+00  0.00000000E+00
  0.00000000E+00  0.00000000E+00  0.00000000E+00
  0.00000000E+00  0.00000000E+00  0.00000000E+00
  0.00000000E+00  0.00000000E+00  0.00000000E+00
  0.00000000E+00  0.00000000E+00  0.00000000E+00
  0.00000000E+00  0.00000000E+00  0.00000000E+00
  0.00000000E+00  0.00000000E+00  0.00000000E+00
  0.00000000E+00  0.00000000E+00  0.00000000E+00
  0.00000000E+00  0.00000000E+00  0.00000000E+00
  0.00000000E+00  0.00000000E+00  0.00000000E+00
  0.00000000E+00  0.00000000E+00  0.00000000E+00
  0.00000000E+00  0.00000000E+00  0.00000000E+00
  0.00000000E+00  0.00000000E+00  0.00000000E+00
  0.00000000E+00  0.00000000E+00  0.00000000E+00
  0.00000000E+00  0.00000000E+00  0.00000000E+00
  0.00000000E+00  0.00000000E+00  0.00000000E+00
  0.00000000E+00  0.00000000E+00  0.00000000E+00
  0.00000000E+00  0.00000000E+00  0.00000000E+00
  0.00000000E+00  0.00000000E+00  0.00000000E+00
  0.00000000E+00  0.00000000E+00  0.00000000E+00
  0.00000000E+00  0.00000000E+00  0.00000000E+00
  0.00000000E+00  0.00000000E+00  0.00000000E+00
  0.00000000E+00  0.00000000E+00  0.00000000E+00
  0.00000000E+00  0.00000000E+00  0.00000000E+00
