 C 
 1.0000000000000000
    28.0500000000000007    0.0000000000000000    0.0000000000000000
     0.0000000000000000    8.0999999999999996    0.0000000000000000
     0.0000000000000000    0.0000000000000000   33.5000000000000000
 C  
  92
Cartesian
  8.7450200000000002  4.1443599999999998  0.6760470000000000
  8.7112900000000000  5.5022700000000002  0.8795890000000000
  9.9993700000000008  3.4783200000000001  0.7803580000000000
  9.9328699999999994  6.2032999999999996  0.7498510000000000
 11.2079000000000004  4.1656899999999997  0.7202110000000000
 11.1828000000000003  5.5463699999999996  0.8540040000000000
 12.4337999999999997  3.5160200000000001  0.4851920000000000
 12.4100000000000001  6.1658200000000001  0.6714960000000000
 13.6277000000000008  4.1417999999999999  0.2690040000000000
 13.6433999999999997  5.5269000000000004  0.4259520000000000
 14.8155000000000001  3.4780099999999998 -0.1196190000000000
 14.8445999999999998  6.2144199999999996 -0.1001720000000000
 16.0186999999999991  4.1238599999999996 -0.4555690000000000
 16.0118000000000009  5.5283600000000002 -0.4728920000000000
 17.2567999999999984  3.4607899999999998 -0.8614860000000000
 17.1188000000000002  6.1622599999999998 -1.1030700000000000
 18.4252000000000002  4.0892799999999996 -1.2143100000000000
 18.3770999999999987  5.4675500000000001 -1.3606499999999999
 19.6713999999999984  3.3793400000000000 -1.5820200000000000
 19.4825000000000017  6.1680500000000000 -1.8586700000000000
 20.7333999999999996  4.1310700000000002 -2.0049500000000000
 20.6959000000000017  5.4989999999999997 -2.0263499999999999
 21.9928999999999988  3.4248799999999999 -2.2486199999999998
 21.9629000000000012  6.1756000000000002 -2.1664900000000000
 23.1812000000000005  4.0744100000000003 -2.1691500000000001
 23.1697999999999986  5.4600799999999996 -2.1589200000000002
 24.4269999999999996  3.4251800000000001 -2.1450999999999998
 24.4107999999999983  6.1612999999999998 -2.1476099999999998
 25.6293000000000006  4.1124499999999999 -1.8627400000000001
 25.6110000000000007  5.5066199999999998 -1.8861399999999999
 26.8697000000000017  3.5056699999999998 -1.6112000000000000
 26.8068999999999988  6.1333900000000003 -1.8270700000000000
  0.0036754200000000  4.1453600000000002 -1.3375200000000000
  0.0164850000000000  5.5143100000000000 -1.5303000000000000
  1.2376900000000000  3.4897000000000000 -1.0359600000000000
  1.2178100000000001  6.1821700000000002 -1.2235300000000000
  2.4329499999999999  4.1897300000000000 -0.6767180000000000
  2.4392600000000000  5.5480900000000002 -0.7852950000000000
  3.6585299999999998  3.5453199999999998 -0.3306960000000000
  3.6453799999999998  6.2393099999999997 -0.4122880000000000
  4.8721300000000003  4.2003300000000001 -0.1217450000000000
  4.8806799999999999  5.5968600000000004 -0.0424306000000000
  6.0972400000000002  3.4997099999999999  0.1183150000000000
  6.1319100000000004  6.2165600000000003  0.2564140000000000
  7.2691200000000000  4.1381199999999998  0.5292240000000000
  7.2434300000000000  5.5318699999999996  0.6534030000000000
  8.6835100000000001  0.0378696000000000  0.3795970000000000
  8.7496200000000002  1.4625600000000001  0.3152640000000000
  9.9204200000000000  7.5499900000000002  0.4746840000000000
  9.9311500000000006  2.1444200000000002  0.5698820000000000
 11.1920999999999999  0.1065590000000000  0.3710910000000000
 11.1465999999999994  1.4760000000000000  0.3655140000000000
 12.4276000000000000  7.5633499999999998  0.4491550000000000
 12.3924000000000003  2.1420499999999998  0.3087760000000000
 13.5991000000000000  0.0892910000000000  0.0062738600000000
 13.5701999999999998  1.4604100000000000 -0.0405922000000000
 14.7782999999999998  7.5700700000000003 -0.3054260000000000
 14.7703000000000007  2.1215600000000001 -0.3724270000000000
 15.8939000000000004  0.1389060000000000 -0.9337000000000000
 15.9497000000000000  1.5117300000000000 -0.7813390000000000
 17.0532000000000004  7.5189199999999996 -1.3428300000000000
 17.1729999999999983  2.0894599999999999 -0.9630790000000000
 18.2216999999999985  0.0605674000000000 -1.7893399999999999
 18.2880000000000003  1.3990899999999999 -1.5273699999999999
 19.4577999999999989  7.4843999999999999 -2.1141999999999999
 19.5443999999999996  2.0380099999999999 -1.8319200000000000
 20.6585000000000001  0.0525750000000000 -2.4657100000000001
 20.6947000000000010  1.4129600000000000 -2.3669799999999999
 21.9404000000000003  7.5088800000000004 -2.4525600000000001
 21.9212999999999987  2.0811099999999998 -2.5595200000000000
 23.2216999999999985  0.0326649000000000 -2.6521599999999999
 23.1979000000000006  1.4383699999999999 -2.6603599999999998
 24.4157000000000011  7.4831700000000003 -2.4144600000000001
 24.4559999999999995  2.0866500000000001 -2.4187599999999998
 25.6654000000000018  0.0657123000000000 -2.3302399999999999
 25.7149999999999999  1.4348600000000000 -2.2914599999999998
 26.8750999999999998  7.5385799999999996 -1.9992399999999999
 26.9238000000000000  2.1375500000000001 -1.9359800000000000
  0.0544523000000000  0.1086540000000000 -1.7088600000000000
  0.1132740000000000  1.4583400000000000 -1.5574200000000000
  1.2894300000000001  7.5442999999999998 -1.3134800000000000
  1.2988299999999999  2.1454000000000000 -1.1473100000000001
  2.5230600000000001  0.1187270000000000 -0.8680300000000000
  2.4592499999999999  1.4735000000000000 -0.7396960000000000
  3.7115900000000002  7.6291500000000001 -0.4173550000000000
  3.6968999999999999  2.1614300000000002 -0.4627590000000000
  4.9386799999999997  0.1818770000000000 -0.1798820000000000
  4.9154900000000001  1.5231300000000001 -0.2627170000000000
  6.1057199999999998  7.6141399999999999  0.0173512000000000
  6.1692799999999997  2.1545999999999998  0.0598342000000000
  7.2876799999999999  0.1419760000000000  0.1885610000000000
  7.3359300000000003  1.5132600000000000  0.2163110000000000
