Global Parameters
ISTART =  0            (Not Read existing wavefunction; if there)
ISPIN  =  1            (Non-Spin polarised DFT, Default=1)

ICHARG =  2            (The initial guess charge density is generated by superposition of atomic charge density)
LREAL  =  Auto         (Projection operators: automatic)
ENCUT  =  500          (Cut-off energy for plane wave basis set, in eV)

LWAVE  = .FALSE.       (Write WAVECAR or not)
LCHARG = .FALSE.       (Write CHGCAR or not)

PREC     =  Accurate   (Precision level)
KGAMMA   = .TRUE.      # GAMMA point
ALGO     = Normal

Static Calculation
NSW    =   0           (Default: NSW = 0)
IBRION =  -1           (Ions are not moved)
ISMEAR =  0           

EDIFF  =  1E-06        (SCF energy convergence; in eV)

NELM   =  150          (Max electronic SCF steps)

