 C                                      
    1.000000000000000     
    28.0500000000000007    0.0000000000000000    0.0000000000000000
     0.0000000000000000    8.0999999999999996    0.0000000000000000
     0.0000000000000000    0.0000000000000000   33.5000000000000000
   C 
    92
Direct
     0.0056970766488433    0.1001398765432100    0.5101880597014912
     0.0046451693404634    0.2734506172839488    0.5081343283582100
     0.0503575757575732    0.0259318518518512    0.5148656716417932
     0.0468010695187147    0.3577703703703676    0.5076388059701458
     0.0941354723707661    0.1091811111111127    0.5051761194029822
     0.0900709447415338    0.2752629629629624    0.4995820895522414
     0.1396516934046375    0.0264665432098781    0.5044805970149255
     0.1334156862745104    0.3570271604938284    0.4911194029850776
     0.1796032085561521    0.1051195061728407    0.4898119402985088
     0.1772285204991064    0.2723222222222219    0.4848089552238832
     0.2243215686274525    0.0203153086419761    0.4859194029850755
     0.2203144385026761    0.3527333333333331    0.4735343283582125
     0.2649368983957245    0.1036019753086421    0.4739522388059711
     0.2622663101604275    0.2686469135802483    0.4681910447761197
     0.3085026737967880    0.0196009876543215    0.4687611940298524
     0.3073272727272709    0.3480925925925931    0.4560895522388080
     0.3530830659536548    0.1040174074074045    0.4646656716417894
     0.3520898395721943    0.2693814814814814    0.4567164179104495
     0.3985240641711201    0.0287408641975304    0.4717223880597032
     0.3956470588235277    0.3548148148148158    0.4573432835820910
     0.4405311942959003    0.1069645679012368    0.4715194029850736
     0.4401247771835983    0.2762888888888924    0.4625223880597034
     0.4831122994652404    0.0307516049382741    0.4814029850746238
     0.4855436720142592    0.3527481481481516    0.4650626865671654
     0.5263172905525835    0.1125767901234553    0.4876507462686561
     0.5293975044563268    0.2778037037037038    0.4768059701492504
     0.5672513368983942    0.0293620987654322    0.4987044776119376
     0.5722745098039184    0.3543654320987670    0.4825820895522384
     0.6105846702317308    0.1095175308641956    0.5075761194029837
     0.6154866310160401    0.2669827160493838    0.4940358208955189
     0.6505704099821727    0.0227860493827166    0.5182805970149218
     0.6570481283422467    0.3506061728395053    0.5022985074626831
     0.6960606060606054    0.1021013580246901    0.5225432835820882
     0.6974901960784337    0.2645765432098770    0.5123462686567137
     0.7379857397504423    0.0175824691358031    0.5329223880597027
     0.7404884135472400    0.3495543209876573    0.5180388059701500
     0.7823743315508054    0.0986860493827137    0.5342089552238818
     0.7831122994652375    0.2702679012345683    0.5303970149253701
     0.8281889483065967    0.0152790123456796    0.5376388059701469
     0.8263065953654163    0.3536222222222207    0.5311223880596998
     0.8716434937611410    0.0986308641975313    0.5304119402985066
     0.8693012477718369    0.2672827160493796    0.5255462686567185
     0.9166488413547214    0.0161604938271580    0.5286985074626855
     0.9139322638146155    0.3528580246913577    0.5257970149253737
     0.9563172905525832    0.0979627160493806    0.5154328358208957
     0.9541176470588226    0.2712024691358010    0.5132776119402962
     0.0097094117647032    0.6078345679012358    0.5282328358208943
     0.0107143672014232    0.7781000000000020    0.5333343283582082
     0.0502509803921569    0.5249345679012336    0.5123164179104478
     0.0522292335115893    0.8570024691358000    0.5232358208955219
     0.0955522281639958    0.6106851851851829    0.5112895522388072
     0.0961215686274528    0.7729543209876510    0.5183552238805973
     0.1342249554367214    0.5243049382716052    0.4971791044776097
     0.1397618538324394    0.8520370370370358    0.5090119402985067
     0.1781529411764708    0.6014024691358060    0.4917641791044787
     0.1796106951871650    0.7742074074074097    0.4951283582089587
     0.2208335115864557    0.5198999999999998    0.4765194029850761
     0.2241479500891259    0.8541580246913583    0.4870686567164171
     0.2658281639928717    0.6014271604938273    0.4725641791044808
     0.2657344028520470    0.7719024691358030    0.4754000000000005
     0.3079975044563312    0.5219259259259275    0.4583104477611926
     0.3096909090909108    0.8522086419753094    0.4684119402985090
     0.3509721925133675    0.6106938271604960    0.4572149253731368
     0.3525361853832436    0.7789024691358009    0.4622686567164180
     0.3967165775401043    0.5267864197530869    0.4559671641791070
     0.3967023172905542    0.8612382716049396    0.4679313432835812
     0.4403458110516922    0.6082012345679004    0.4578626865671609
     0.4409162210338664    0.7797530864197526    0.4642835820895499
     0.4854652406417088    0.5213271604938257    0.4598835820895530
     0.4840570409982163    0.8591728395061722    0.4772119402985098
     0.5276149732620325    0.6075185185185177    0.4719313432835790
     0.5268092691622073    0.7729592592592596    0.4828328358208935
     0.5714010695187142    0.5277148148148143    0.4815373134328382
     0.5666452762923342    0.8629271604938253    0.4973432835820901
     0.6133475935828869    0.6092999999999975    0.4939910447761164
     0.6093404634581105    0.7689395061728419    0.5054447761194041
     0.6567023172905522    0.5218691358024685    0.5011970149253742
     0.6505276292335083    0.8524827160493800    0.5176805970149232
     0.6975365418894839    0.5996728395061695    0.5159492537313426
     0.6938573975044591    0.7670790123456825    0.5261432835820870
     0.7404812834224614    0.5218172839506181    0.5217044776119408
     0.7381247771836001    0.8451209876543189    0.5360925373134293
     0.7832228163992880    0.5973901234567904    0.5349522388059711
     0.7833761140819959    0.7650518518518510    0.5405940298507446
     0.8290516934046366    0.5223197530864212    0.5351223880597047
     0.8277290552584660    0.8496086419753084    0.5396626865671621
     0.8730873440285194    0.5994123456790135    0.5391552238805986
     0.8730017825311975    0.7677740740740759    0.5420656716417938
     0.9191158645276261    0.5182555555555552    0.5377522388059717
     0.9168805704099796    0.8527098765432086    0.5361223880597024
     0.9604705882352960    0.6043037037037067    0.5397044776119415
     0.9602495543672021    0.7765641975308668    0.5427522388059671
 
  0.00000000E+00  0.00000000E+00  0.00000000E+00
  0.00000000E+00  0.00000000E+00  0.00000000E+00
  0.00000000E+00  0.00000000E+00  0.00000000E+00
  0.00000000E+00  0.00000000E+00  0.00000000E+00
  0.00000000E+00  0.00000000E+00  0.00000000E+00
  0.00000000E+00  0.00000000E+00  0.00000000E+00
  0.00000000E+00  0.00000000E+00  0.00000000E+00
  0.00000000E+00  0.00000000E+00  0.00000000E+00
  0.00000000E+00  0.00000000E+00  0.00000000E+00
  0.00000000E+00  0.00000000E+00  0.00000000E+00
  0.00000000E+00  0.00000000E+00  0.00000000E+00
  0.00000000E+00  0.00000000E+00  0.00000000E+00
  0.00000000E+00  0.00000000E+00  0.00000000E+00
  0.00000000E+00  0.00000000E+00  0.00000000E+00
  0.00000000E+00  0.00000000E+00  0.00000000E+00
  0.00000000E+00  0.00000000E+00  0.00000000E+00
  0.00000000E+00  0.00000000E+00  0.00000000E+00
  0.00000000E+00  0.00000000E+00  0.00000000E+00
  0.00000000E+00  0.00000000E+00  0.00000000E+00
  0.00000000E+00  0.00000000E+00  0.00000000E+00
  0.00000000E+00  0.00000000E+00  0.00000000E+00
  0.00000000E+00  0.00000000E+00  0.00000000E+00
  0.00000000E+00  0.00000000E+00  0.00000000E+00
  0.00000000E+00  0.00000000E+00  0.00000000E+00
  0.00000000E+00  0.00000000E+00  0.00000000E+00
  0.00000000E+00  0.00000000E+00  0.00000000E+00
  0.00000000E+00  0.00000000E+00  0.00000000E+00
  0.00000000E+00  0.00000000E+00  0.00000000E+00
  0.00000000E+00  0.00000000E+00  0.00000000E+00
  0.00000000E+00  0.00000000E+00  0.00000000E+00
  0.00000000E+00  0.00000000E+00  0.00000000E+00
  0.00000000E+00  0.00000000E+00  0.00000000E+00
  0.00000000E+00  0.00000000E+00  0.00000000E+00
  0.00000000E+00  0.00000000E+00  0.00000000E+00
  0.00000000E+00  0.00000000E+00  0.00000000E+00
  0.00000000E+00  0.00000000E+00  0.00000000E+00
  0.00000000E+00  0.00000000E+00  0.00000000E+00
  0.00000000E+00  0.00000000E+00  0.00000000E+00
  0.00000000E+00  0.00000000E+00  0.00000000E+00
  0.00000000E+00  0.00000000E+00  0.00000000E+00
  0.00000000E+00  0.00000000E+00  0.00000000E+00
  0.00000000E+00  0.00000000E+00  0.00000000E+00
  0.00000000E+00  0.00000000E+00  0.00000000E+00
  0.00000000E+00  0.00000000E+00  0.00000000E+00
  0.00000000E+00  0.00000000E+00  0.00000000E+00
  0.00000000E+00  0.00000000E+00  0.00000000E+00
  0.00000000E+00  0.00000000E+00  0.00000000E+00
  0.00000000E+00  0.00000000E+00  0.00000000E+00
  0.00000000E+00  0.00000000E+00  0.00000000E+00
  0.00000000E+00  0.00000000E+00  0.00000000E+00
  0.00000000E+00  0.00000000E+00  0.00000000E+00
  0.00000000E+00  0.00000000E+00  0.00000000E+00
  0.00000000E+00  0.00000000E+00  0.00000000E+00
  0.00000000E+00  0.00000000E+00  0.00000000E+00
  0.00000000E+00  0.00000000E+00  0.00000000E+00
  0.00000000E+00  0.00000000E+00  0.00000000E+00
  0.00000000E+00  0.00000000E+00  0.00000000E+00
  0.00000000E+00  0.00000000E+00  0.00000000E+00
  0.00000000E+00  0.00000000E+00  0.00000000E+00
  0.00000000E+00  0.00000000E+00  0.00000000E+00
  0.00000000E+00  0.00000000E+00  0.00000000E+00
  0.00000000E+00  0.00000000E+00  0.00000000E+00
  0.00000000E+00  0.00000000E+00  0.00000000E+00
  0.00000000E+00  0.00000000E+00  0.00000000E+00
  0.00000000E+00  0.00000000E+00  0.00000000E+00
  0.00000000E+00  0.00000000E+00  0.00000000E+00
  0.00000000E+00  0.00000000E+00  0.00000000E+00
  0.00000000E+00  0.00000000E+00  0.00000000E+00
  0.00000000E+00  0.00000000E+00  0.00000000E+00
  0.00000000E+00  0.00000000E+00  0.00000000E+00
  0.00000000E+00  0.00000000E+00  0.00000000E+00
  0.00000000E+00  0.00000000E+00  0.00000000E+00
  0.00000000E+00  0.00000000E+00  0.00000000E+00
  0.00000000E+00  0.00000000E+00  0.00000000E+00
  0.00000000E+00  0.00000000E+00  0.00000000E+00
  0.00000000E+00  0.00000000E+00  0.00000000E+00
  0.00000000E+00  0.00000000E+00  0.00000000E+00
  0.00000000E+00  0.00000000E+00  0.00000000E+00
  0.00000000E+00  0.00000000E+00  0.00000000E+00
  0.00000000E+00  0.00000000E+00  0.00000000E+00
  0.00000000E+00  0.00000000E+00  0.00000000E+00
  0.00000000E+00  0.00000000E+00  0.00000000E+00
  0.00000000E+00  0.00000000E+00  0.00000000E+00
  0.00000000E+00  0.00000000E+00  0.00000000E+00
  0.00000000E+00  0.00000000E+00  0.00000000E+00
  0.00000000E+00  0.00000000E+00  0.00000000E+00
  0.00000000E+00  0.00000000E+00  0.00000000E+00
  0.00000000E+00  0.00000000E+00  0.00000000E+00
  0.00000000E+00  0.00000000E+00  0.00000000E+00
  0.00000000E+00  0.00000000E+00  0.00000000E+00
  0.00000000E+00  0.00000000E+00  0.00000000E+00
  0.00000000E+00  0.00000000E+00  0.00000000E+00
