 C                                      
    1.000000000000000     
    28.0500000000000007    0.0000000000000000    0.0000000000000000
     0.0000000000000000    8.0999999999999996    0.0000000000000000
     0.0000000000000000    0.0000000000000000   33.5000000000000000
   C 
    92
Direct
     0.0027616613190702    0.1020227160493832    0.4817014925373115
     0.0022877040998210    0.2722888888888875    0.4838089552238785
     0.0456737967914407    0.0205556790123467    0.4801223880597050
     0.0455458110516958    0.3537827160493805    0.4777611940298527
     0.0882869875222809    0.1017906172839531    0.4702895522388033
     0.0876652406417122    0.2715049382716046    0.4650208955223860
     0.1337461675579306    0.0196037037037016    0.4715611940298530
     0.1324363636363657    0.3482493827160482    0.4615820895522376
     0.1783493761140846    0.1037470370370386    0.4642089552238815
     0.1763379679144350    0.2614135802469164    0.4582985074626862
     0.2213254901960795    0.0190308641975321    0.4582716417910433
     0.2221301247771805    0.3427629629629649    0.4562238805970154
     0.2660819964349344    0.1025181481481496    0.4583791044776149
     0.2661696969696976    0.2667345679012314    0.4531970149253723
     0.3119579322638160    0.0187593827160484    0.4607492537313433
     0.3110755793226403    0.3504555555555555    0.4553253731343290
     0.3550049910873412    0.1023823456790112    0.4687641791044754
     0.3553618538324415    0.2722703703703715    0.4622029850746259
     0.3979322638146172    0.0245760493827163    0.4789701492537333
     0.4000285204991059    0.3514061728395035    0.4691492537313451
     0.4421319073083794    0.1087314814814846    0.4869343283582097
     0.4436327985739723    0.2756444444444455    0.4803343283582109
     0.4843065953654175    0.0219520987654320    0.4961253731343263
     0.4867771836007151    0.3607802469135777    0.4906507462686562
     0.5274866310160462    0.1070850617283980    0.5059611940298510
     0.5257504456327950    0.2794049382716040    0.5059641791044811
     0.5692192513368965    0.0236979012345699    0.5171432835820866
     0.5678966131907330    0.3567296296296263    0.5178179104477607
     0.6113190730837772    0.1060124691358055    0.5247194029850775
     0.6122459893048102    0.2789172839506193    0.5237552238805989
     0.6556506238859185    0.0212440740740760    0.5309940298507456
     0.6541247771836041    0.3564567901234597    0.5395731343283572
     0.6986631016042750    0.1089118518518504    0.5379223880596982
     0.6984028520499095    0.2728975308641992    0.5413492537313402
     0.7423529411764704    0.0248766666666640    0.5424716417910460
     0.7419037433155111    0.3577580246913570    0.5468716417910429
     0.7859001782531223    0.1087843209876524    0.5388208955223845
     0.7866951871657761    0.2770493827160507    0.5417373134328329
     0.8289233511586431    0.0245801234567935    0.5337223880597008
     0.8313297682709475    0.3597876543209892    0.5371134328358238
     0.8694616755793234    0.1006965432098781    0.5199820895522365
     0.8711479500891244    0.2673086419753119    0.5232417910447751
     0.9113262032085530    0.0110642345679040    0.5093791044776097
     0.9154795008912657    0.3543135802469166    0.5166626865671660
     0.9503600713012474    0.0967972839506146    0.4945701492537324
     0.9495151515151505    0.2699259259259250    0.4948208955223876
     0.0097537967914434    0.5974209876543242    0.5037462686567196
     0.0081344385026725    0.7704320987654327    0.5015343283582112
     0.0479657754010674    0.5185913580246932    0.4873313432835786
     0.0498060606060591    0.8523333333333341    0.4908865671641820
     0.0924859180035682    0.6041037037037071    0.4783970149253705
     0.0938502673796791    0.7707049382716065    0.4825850746268685
     0.1335850267379683    0.5218049382716075    0.4693104477611953
     0.1346859180035622    0.8496135802469169    0.4716029850746253
     0.1789996434937606    0.5945209876543203    0.4617253731343283
     0.1782556149732599    0.7643259259259239    0.4613313432835824
     0.2231807486631041    0.5111790123456785    0.4536298507462675
     0.2219554367201440    0.8527259259259239    0.4569522388059681
     0.2656242424242450    0.5984061728395034    0.4552835820895496
     0.2660549019607856    0.7677469135802468    0.4582149253731345
     0.3117893048128337    0.5182839506172812    0.4558985074626847
     0.3108720142602479    0.8524728395061700    0.4613283582089522
     0.3567950089126555    0.6045012345678984    0.4642865671641800
     0.3546805704099825    0.7723024691358020    0.4701432835820896
     0.3989233511586434    0.5250580246913614    0.4702388059701477
     0.3971586452762921    0.8580580246913598    0.4786000000000001
     0.4402852049910848    0.6082567901234555    0.4860358208955233
     0.4400178253119407    0.7770419753086415    0.4909014925373114
     0.4834901960784279    0.5236580246913576    0.4969074626865648
     0.4822495543672005    0.8545777777777772    0.5018507462686586
     0.5250445632798559    0.6054666666666648    0.5100895522388029
     0.5257112299465234    0.7750246913580270    0.5119253731343250
     0.5675828877005316    0.5246703703703730    0.5209194029850721
     0.5692370766488395    0.8564827160493849    0.5190149253731349
     0.6114759358288779    0.6077716049382715    0.5362268656716438
     0.6117468805704078    0.7734395061728421    0.5328895522388066
     0.6541818181818186    0.5250777777777813    0.5444059701492563
     0.6553939393939388    0.8599444444444444    0.5415910447761192
     0.6979393939393930    0.6101975308641983    0.5522149253731357
     0.6974081996434904    0.7844987654320974    0.5524925373134337
     0.7415472370766523    0.5235444444444468    0.5497373134328356
     0.7425240641711213    0.8656358024691357    0.5516208955223902
     0.7859429590017797    0.6084000000000032    0.5519283582089543
     0.7860142602495515    0.7794197530864224    0.5525701492537323
     0.8297219251336898    0.5257246913580218    0.5417850746268655
     0.8292370766488446    0.8561148148148163    0.5404925373134333
     0.8739073083778948    0.6077185185185172    0.5357074626865668
     0.8719001782531208    0.7723629629629656    0.5348477611940297
     0.9181960784313716    0.5237481481481510    0.5251970149253751
     0.9136827094474143    0.8497567901234575    0.5201820895522360
     0.9591443850267396    0.6043481481481479    0.5144328358208980
     0.9573796791443883    0.7762506172839494    0.5167641791044773
 
  0.00000000E+00  0.00000000E+00  0.00000000E+00
  0.00000000E+00  0.00000000E+00  0.00000000E+00
  0.00000000E+00  0.00000000E+00  0.00000000E+00
  0.00000000E+00  0.00000000E+00  0.00000000E+00
  0.00000000E+00  0.00000000E+00  0.00000000E+00
  0.00000000E+00  0.00000000E+00  0.00000000E+00
  0.00000000E+00  0.00000000E+00  0.00000000E+00
  0.00000000E+00  0.00000000E+00  0.00000000E+00
  0.00000000E+00  0.00000000E+00  0.00000000E+00
  0.00000000E+00  0.00000000E+00  0.00000000E+00
  0.00000000E+00  0.00000000E+00  0.00000000E+00
  0.00000000E+00  0.00000000E+00  0.00000000E+00
  0.00000000E+00  0.00000000E+00  0.00000000E+00
  0.00000000E+00  0.00000000E+00  0.00000000E+00
  0.00000000E+00  0.00000000E+00  0.00000000E+00
  0.00000000E+00  0.00000000E+00  0.00000000E+00
  0.00000000E+00  0.00000000E+00  0.00000000E+00
  0.00000000E+00  0.00000000E+00  0.00000000E+00
  0.00000000E+00  0.00000000E+00  0.00000000E+00
  0.00000000E+00  0.00000000E+00  0.00000000E+00
  0.00000000E+00  0.00000000E+00  0.00000000E+00
  0.00000000E+00  0.00000000E+00  0.00000000E+00
  0.00000000E+00  0.00000000E+00  0.00000000E+00
  0.00000000E+00  0.00000000E+00  0.00000000E+00
  0.00000000E+00  0.00000000E+00  0.00000000E+00
  0.00000000E+00  0.00000000E+00  0.00000000E+00
  0.00000000E+00  0.00000000E+00  0.00000000E+00
  0.00000000E+00  0.00000000E+00  0.00000000E+00
  0.00000000E+00  0.00000000E+00  0.00000000E+00
  0.00000000E+00  0.00000000E+00  0.00000000E+00
  0.00000000E+00  0.00000000E+00  0.00000000E+00
  0.00000000E+00  0.00000000E+00  0.00000000E+00
  0.00000000E+00  0.00000000E+00  0.00000000E+00
  0.00000000E+00  0.00000000E+00  0.00000000E+00
  0.00000000E+00  0.00000000E+00  0.00000000E+00
  0.00000000E+00  0.00000000E+00  0.00000000E+00
  0.00000000E+00  0.00000000E+00  0.00000000E+00
  0.00000000E+00  0.00000000E+00  0.00000000E+00
  0.00000000E+00  0.00000000E+00  0.00000000E+00
  0.00000000E+00  0.00000000E+00  0.00000000E+00
  0.00000000E+00  0.00000000E+00  0.00000000E+00
  0.00000000E+00  0.00000000E+00  0.00000000E+00
  0.00000000E+00  0.00000000E+00  0.00000000E+00
  0.00000000E+00  0.00000000E+00  0.00000000E+00
  0.00000000E+00  0.00000000E+00  0.00000000E+00
  0.00000000E+00  0.00000000E+00  0.00000000E+00
  0.00000000E+00  0.00000000E+00  0.00000000E+00
  0.00000000E+00  0.00000000E+00  0.00000000E+00
  0.00000000E+00  0.00000000E+00  0.00000000E+00
  0.00000000E+00  0.00000000E+00  0.00000000E+00
  0.00000000E+00  0.00000000E+00  0.00000000E+00
  0.00000000E+00  0.00000000E+00  0.00000000E+00
  0.00000000E+00  0.00000000E+00  0.00000000E+00
  0.00000000E+00  0.00000000E+00  0.00000000E+00
  0.00000000E+00  0.00000000E+00  0.00000000E+00
  0.00000000E+00  0.00000000E+00  0.00000000E+00
  0.00000000E+00  0.00000000E+00  0.00000000E+00
  0.00000000E+00  0.00000000E+00  0.00000000E+00
  0.00000000E+00  0.00000000E+00  0.00000000E+00
  0.00000000E+00  0.00000000E+00  0.00000000E+00
  0.00000000E+00  0.00000000E+00  0.00000000E+00
  0.00000000E+00  0.00000000E+00  0.00000000E+00
  0.00000000E+00  0.00000000E+00  0.00000000E+00
  0.00000000E+00  0.00000000E+00  0.00000000E+00
  0.00000000E+00  0.00000000E+00  0.00000000E+00
  0.00000000E+00  0.00000000E+00  0.00000000E+00
  0.00000000E+00  0.00000000E+00  0.00000000E+00
  0.00000000E+00  0.00000000E+00  0.00000000E+00
  0.00000000E+00  0.00000000E+00  0.00000000E+00
  0.00000000E+00  0.00000000E+00  0.00000000E+00
  0.00000000E+00  0.00000000E+00  0.00000000E+00
  0.00000000E+00  0.00000000E+00  0.00000000E+00
  0.00000000E+00  0.00000000E+00  0.00000000E+00
  0.00000000E+00  0.00000000E+00  0.00000000E+00
  0.00000000E+00  0.00000000E+00  0.00000000E+00
  0.00000000E+00  0.00000000E+00  0.00000000E+00
  0.00000000E+00  0.00000000E+00  0.00000000E+00
  0.00000000E+00  0.00000000E+00  0.00000000E+00
  0.00000000E+00  0.00000000E+00  0.00000000E+00
  0.00000000E+00  0.00000000E+00  0.00000000E+00
  0.00000000E+00  0.00000000E+00  0.00000000E+00
  0.00000000E+00  0.00000000E+00  0.00000000E+00
  0.00000000E+00  0.00000000E+00  0.00000000E+00
  0.00000000E+00  0.00000000E+00  0.00000000E+00
  0.00000000E+00  0.00000000E+00  0.00000000E+00
  0.00000000E+00  0.00000000E+00  0.00000000E+00
  0.00000000E+00  0.00000000E+00  0.00000000E+00
  0.00000000E+00  0.00000000E+00  0.00000000E+00
  0.00000000E+00  0.00000000E+00  0.00000000E+00
  0.00000000E+00  0.00000000E+00  0.00000000E+00
  0.00000000E+00  0.00000000E+00  0.00000000E+00
  0.00000000E+00  0.00000000E+00  0.00000000E+00
