 C 
 1.0000000000000000
    28.0500000000000007    0.0000000000000000    0.0000000000000000
     0.0000000000000000    8.0999999999999996    0.0000000000000000
     0.0000000000000000    0.0000000000000000   33.5000000000000000
 C  
  92
Cartesian
  0.0774646000000000  0.8263840000000000 16.1370000000000005
  0.0641701000000000  2.2055400000000001 16.2075999999999993
  1.2811500000000000  0.1665010000000000 16.0840999999999994
  1.2775600000000000  2.8656400000000000 16.0049999999999990
  2.4764499999999998  0.8245040000000000 15.7546999999999997
  2.4590100000000001  2.1991900000000002 15.5782000000000007
  3.7515800000000001  0.1587900000000000 15.7972999999999999
  3.7148400000000001  2.8208199999999999 15.4629999999999992
  5.0026999999999999  0.8403510000000000 15.5510000000000002
  4.9462799999999998  2.1174499999999998 15.3529999999999998
  6.2081799999999996  0.1541500000000000 15.3521000000000001
  6.2307499999999996  2.7763800000000001 15.2835000000000001
  7.4635999999999996  0.8303970000000001 15.3557000000000006
  7.4660599999999997  2.1605500000000002 15.1821000000000002
  8.7504200000000001  0.1519510000000000 15.4351000000000003
  8.7256699999999991  2.8386900000000002 15.2533999999999992
  9.9578900000000008  0.8292970000000000 15.7035999999999998
  9.9679000000000002  2.2053900000000000 15.4838000000000005
 11.1620000000000008  0.1990660000000000 16.0455000000000005
 11.2208000000000006  2.8463900000000000 15.7164999999999999
 12.4017999999999997  0.8807250000000000 16.3123000000000005
 12.4438999999999993  2.2327200000000000 16.0912000000000006
 13.5847999999999995  0.1778120000000000 16.6202000000000005
 13.6540999999999997  2.9223200000000000 16.4368000000000016
 14.7959999999999994  0.8673890000000000 16.9497000000000000
 14.7472999999999992  2.2631800000000002 16.9497999999999998
 15.9665999999999997  0.1919530000000000 17.3243000000000009
 15.9295000000000009  2.8895100000000000 17.3469000000000015
 17.1475000000000009  0.8587010000000000 17.5780999999999992
 17.1735000000000007  2.2592300000000001 17.5457999999999998
 18.3909999999999982  0.1720770000000000 17.7882999999999996
 18.3481999999999985  2.8873000000000002 18.0757000000000012
 19.5975000000000001  0.8821860000000000 18.0203999999999986
 19.5901999999999994  2.2104699999999999 18.1352000000000011
 20.8230000000000004  0.2015010000000000 18.1727999999999987
 20.8104000000000013  2.8978400000000000 18.3201999999999998
 22.0444999999999993  0.8811530000000000 18.0504999999999995
 22.0668000000000006  2.2441000000000000 18.1481999999999992
 23.2513000000000005  0.1990990000000000 17.8796999999999997
 23.3187999999999995  2.9142800000000002 17.9933000000000014
 24.3884000000000007  0.8156420000000000 17.4193999999999996
 24.4357000000000006  2.1652000000000000 17.5286000000000008
 25.5626999999999995  0.0896203000000000 17.0641999999999996
 25.6792000000000016  2.8699400000000002 17.3081999999999994
 26.6575999999999986  0.7840580000000000 16.5681000000000012
 26.6339000000000006  2.1863999999999999 16.5764999999999993
  0.2735940000000000  4.8391099999999998 16.8754999999999988
  0.2281710000000000  6.2404999999999999 16.8014000000000010
  1.3454400000000000  4.2005900000000000 16.3256000000000014
  1.3970600000000000  6.9039000000000001 16.4447000000000010
  2.5942300000000000  4.8932399999999996 16.0262999999999991
  2.6324999999999998  6.2427099999999998 16.1665999999999990
  3.7470599999999998  4.2266199999999996 15.7218999999999998
  3.7779400000000001  6.8818700000000002 15.7987000000000002
  5.0209400000000004  4.8156200000000000 15.4678000000000004
  5.0000700000000000  6.1910400000000001 15.4545999999999992
  6.2602200000000003  4.1405500000000002 15.1966000000000001
  6.2258500000000003  6.9070799999999997 15.3079000000000001
  7.4507599999999998  4.8470899999999997 15.2520000000000007
  7.4628399999999999  6.2187500000000000 15.3501999999999992
  8.7456899999999997  4.1981000000000002 15.2726000000000006
  8.7199600000000004  6.9050300000000000 15.4544999999999995
 10.0081000000000007  4.8964600000000003 15.5535999999999994
  9.9487900000000007  6.2556500000000002 15.7498000000000005
 11.1898000000000000  4.2529700000000004 15.7530000000000001
 11.1402999999999999  6.9502699999999997 16.0331000000000010
 12.3499999999999996  4.9268799999999997 16.2821999999999996
 12.3424999999999994  6.2940399999999999 16.4451999999999998
 13.5618999999999996  4.2416299999999998 16.6463999999999999
 13.5271000000000008  6.9220800000000002 16.8120000000000012
 14.7274999999999991  4.9042800000000000 17.0880000000000010
 14.7462000000000000  6.2777000000000003 17.1494999999999997
 15.9207000000000001  4.2498300000000002 17.4508000000000010
 15.9671000000000003  6.9375099999999996 17.3870000000000005
 17.1519000000000013  4.9229500000000002 17.9635999999999996
 17.1595000000000013  6.2648599999999997 17.8518000000000008
 18.3497999999999983  4.2531299999999996 18.2376000000000005
 18.3838000000000008  6.9655500000000004 18.1433000000000000
 19.5772000000000013  4.9425999999999997 18.4991999999999983
 19.5623000000000005  6.3544400000000003 18.5085000000000015
 20.8003999999999998  4.2407100000000000 18.4161999999999999
 20.8277999999999999  7.0116500000000004 18.4792999999999985
 22.0457000000000001  4.9280400000000002 18.4895999999999994
 22.0476999999999990  6.3132999999999999 18.5110999999999990
 23.2737000000000016  4.2583700000000002 18.1497999999999990
 23.2601000000000013  6.9345299999999996 18.1065000000000005
 24.5131000000000014  4.9225199999999996 17.9462000000000010
 24.4568000000000012  6.2561400000000003 17.9174000000000007
 25.7554000000000016  4.2423599999999997 17.5941000000000010
 25.6287999999999982  6.8830299999999998 17.4261000000000017
 26.9039999999999999  4.8952200000000001 17.2334999999999994
 26.8545000000000016  6.2876300000000001 17.3115999999999985
