 C                                      
    1.000000000000000     
    28.0500000000000007    0.0000000000000000    0.0000000000000000
     0.0000000000000000    8.0999999999999996    0.0000000000000000
     0.0000000000000000    0.0000000000000000   33.5000000000000000
   C 
    92
Direct
     0.0071873440285231    0.0928124691358008    0.5277014925373109
     0.0080067379679178    0.2598296296296283    0.5242507462686561
     0.0492092691622119    0.0138435802469132    0.5286179104477640
     0.0499928698752257    0.3517172839506202    0.5244955223880581
     0.0935882352941206    0.1000390123456825    0.5247134328358243
     0.0947237076648832    0.2696938271604949    0.5220477611940311
     0.1380431372549040    0.0179927160493847    0.5212388059701496
     0.1377889483065928    0.3532555555555561    0.5212328358208964
     0.1802730837789639    0.1076185185185210    0.5079850746268662
     0.1813821746880535    0.2746765432098783    0.5144358208955211
     0.2218705882352907    0.0170008641975343    0.5011970149253742
     0.2265593582887675    0.3538913580246899    0.5123283582089542
     0.2628862745098033    0.1022124691358002    0.4896328358208990
     0.2664659536541905    0.2677641975308660    0.4985194029850746
     0.3073048128342251    0.0206232098765398    0.4826358208955241
     0.3107853832442089    0.3553320987654303    0.4954865671641784
     0.3488042780748657    0.1145170370370394    0.4742059701492565
     0.3508424242424226    0.2790024691358042    0.4805761194029827
     0.3932049910873445    0.0256201234567897    0.4692865671641826
     0.3948948306595383    0.3562765432098800    0.4756746268656684
     0.4371657754010698    0.1056430864197537    0.4606805970149281
     0.4365026737967881    0.2745419753086438    0.4651283582089576
     0.4831515151515120    0.0241037037037017    0.4558447761194060
     0.4811942959001811    0.3612123456790144    0.4562477611940281
     0.5270837789661300    0.1105181481481452    0.4525970149253737
     0.5253725490196075    0.2828432098765461    0.4526208955223865
     0.5700213903743290    0.0247987654321022    0.4521910447761215
     0.5699215686274499    0.3575506172839482    0.4533671641791059
     0.6136541889483098    0.1050797530864216    0.4616447761193996
     0.6128342245989273    0.2743469135802457    0.4603283582089546
     0.6545454545454561    0.0207988888888906    0.4730895522388039
     0.6570303030303037    0.3587456790123440    0.4709850746268671
     0.6977789661319065    0.1022609876543186    0.4815074626865652
     0.7004670231729051    0.2742037037037051    0.4779014925373133
     0.7394866310160424    0.0220843209876520    0.4971970149253764
     0.7414046345811016    0.3584370370370351    0.4902925373134295
     0.7825276292335133    0.1053595061728387    0.5075999999999965
     0.7839536541889487    0.2700382716049390    0.4996776119402995
     0.8235721925133674    0.0204892592592572    0.5226865671641789
     0.8261247771836011    0.3545382716049374    0.5141880597014961
     0.8663992869875230    0.1030359259259228    0.5293134328358207
     0.8681711229946529    0.2673691358024683    0.5209552238805983
     0.9120998217468781    0.0207966666666692    0.5377283582089518
     0.9140570409982161    0.3521049382716015    0.5243492537313443
     0.9536149732620345    0.0983314814814804    0.5293970149253724
     0.9562745098039187    0.2675345679012366    0.5213552238805974
     0.0084437076648811    0.5978382716049353    0.5410477611940294
     0.0100034581105177    0.7658567901234576    0.5426955223880583
     0.0513668449197837    0.5148123456790117    0.5379432835820879
     0.0527632798573947    0.8492753086419782    0.5367970149253765
     0.0966752228164012    0.5948864197530881    0.5377880597014908
     0.0976285204991072    0.7685049382716045    0.5383552238806004
     0.1379536541889479    0.5188086419753120    0.5326477611940277
     0.1397672014260252    0.8532481481481469    0.5281283582089529
     0.1829672014260240    0.5969209876543218    0.5287373134328348
     0.1845967914438518    0.7681098765432068    0.5261104477611909
     0.2283147950089131    0.5164185185185204    0.5242179104477600
     0.2270249554367183    0.8510160493827144    0.5140895522388078
     0.2713643493761140    0.6067333333333309    0.5162925373134328
     0.2699080213903713    0.7708098765432112    0.5087164179104491
     0.3143960784313720    0.5219234567901267    0.5061074626865647
     0.3087055258467046    0.8548518518518549    0.4921253731343285
     0.3558470588235281    0.6078049382716060    0.4962149253731312
     0.3529137254901968    0.7730469135802451    0.4884925373134337
     0.3971229946524062    0.5275617283950638    0.4806686567164178
     0.3972620320855640    0.8591098765432079    0.4778716417910474
     0.4384420677361831    0.6077691358024708    0.4683552238806001
     0.4396399286987531    0.7785111111111078    0.4693402985074613
     0.4806203208556141    0.5275518518518538    0.4584328358208936
     0.4824919786096231    0.8566000000000003    0.4566059701492549
     0.5261568627450970    0.6081234567901248    0.4549940298507451
     0.5262638146167546    0.7762283950617288    0.4554119402985108
     0.5705240641711242    0.5290074074074056    0.4563373134328330
     0.5691657754010677    0.8617913580246892    0.4598238805970141
     0.6143672014260275    0.6114777777777789    0.4662358208955197
     0.6127272727272697    0.7807530864197503    0.4684835820895543
     0.6559393939393914    0.5229604938271635    0.4760716417910444
     0.6544991087344059    0.8565111111111108    0.4807044776119369
     0.6991087344028486    0.6090012345678986    0.4884149253731351
     0.6967058823529442    0.7739432098765420    0.4936925373134358
     0.7401782531194314    0.5293938271604972    0.5000029850746301
     0.7364848484848494    0.8595012345679010    0.5067850746268689
     0.7819215686274532    0.6033518518518548    0.5159134328358235
     0.7792085561497331    0.7706395061728415    0.5187044776119407
     0.8253796791443833    0.5221629629629660    0.5206179104477613
     0.8228163992869852    0.8512271604938277    0.5291910447761197
     0.8688698752228134    0.6008827160493837    0.5321194029850744
     0.8661604278074861    0.7663999999999973    0.5396955223880582
     0.9149090909090916    0.5206716049382720    0.5280925373134338
     0.9100285204991110    0.8521629629629643    0.5448895522388071
     0.9562174688057041    0.6015271604938306    0.5431671641791027
     0.9555971479500869    0.7748086419753122    0.5477432835820863
 
  0.00000000E+00  0.00000000E+00  0.00000000E+00
  0.00000000E+00  0.00000000E+00  0.00000000E+00
  0.00000000E+00  0.00000000E+00  0.00000000E+00
  0.00000000E+00  0.00000000E+00  0.00000000E+00
  0.00000000E+00  0.00000000E+00  0.00000000E+00
  0.00000000E+00  0.00000000E+00  0.00000000E+00
  0.00000000E+00  0.00000000E+00  0.00000000E+00
  0.00000000E+00  0.00000000E+00  0.00000000E+00
  0.00000000E+00  0.00000000E+00  0.00000000E+00
  0.00000000E+00  0.00000000E+00  0.00000000E+00
  0.00000000E+00  0.00000000E+00  0.00000000E+00
  0.00000000E+00  0.00000000E+00  0.00000000E+00
  0.00000000E+00  0.00000000E+00  0.00000000E+00
  0.00000000E+00  0.00000000E+00  0.00000000E+00
  0.00000000E+00  0.00000000E+00  0.00000000E+00
  0.00000000E+00  0.00000000E+00  0.00000000E+00
  0.00000000E+00  0.00000000E+00  0.00000000E+00
  0.00000000E+00  0.00000000E+00  0.00000000E+00
  0.00000000E+00  0.00000000E+00  0.00000000E+00
  0.00000000E+00  0.00000000E+00  0.00000000E+00
  0.00000000E+00  0.00000000E+00  0.00000000E+00
  0.00000000E+00  0.00000000E+00  0.00000000E+00
  0.00000000E+00  0.00000000E+00  0.00000000E+00
  0.00000000E+00  0.00000000E+00  0.00000000E+00
  0.00000000E+00  0.00000000E+00  0.00000000E+00
  0.00000000E+00  0.00000000E+00  0.00000000E+00
  0.00000000E+00  0.00000000E+00  0.00000000E+00
  0.00000000E+00  0.00000000E+00  0.00000000E+00
  0.00000000E+00  0.00000000E+00  0.00000000E+00
  0.00000000E+00  0.00000000E+00  0.00000000E+00
  0.00000000E+00  0.00000000E+00  0.00000000E+00
  0.00000000E+00  0.00000000E+00  0.00000000E+00
  0.00000000E+00  0.00000000E+00  0.00000000E+00
  0.00000000E+00  0.00000000E+00  0.00000000E+00
  0.00000000E+00  0.00000000E+00  0.00000000E+00
  0.00000000E+00  0.00000000E+00  0.00000000E+00
  0.00000000E+00  0.00000000E+00  0.00000000E+00
  0.00000000E+00  0.00000000E+00  0.00000000E+00
  0.00000000E+00  0.00000000E+00  0.00000000E+00
  0.00000000E+00  0.00000000E+00  0.00000000E+00
  0.00000000E+00  0.00000000E+00  0.00000000E+00
  0.00000000E+00  0.00000000E+00  0.00000000E+00
  0.00000000E+00  0.00000000E+00  0.00000000E+00
  0.00000000E+00  0.00000000E+00  0.00000000E+00
  0.00000000E+00  0.00000000E+00  0.00000000E+00
  0.00000000E+00  0.00000000E+00  0.00000000E+00
  0.00000000E+00  0.00000000E+00  0.00000000E+00
  0.00000000E+00  0.00000000E+00  0.00000000E+00
  0.00000000E+00  0.00000000E+00  0.00000000E+00
  0.00000000E+00  0.00000000E+00  0.00000000E+00
  0.00000000E+00  0.00000000E+00  0.00000000E+00
  0.00000000E+00  0.00000000E+00  0.00000000E+00
  0.00000000E+00  0.00000000E+00  0.00000000E+00
  0.00000000E+00  0.00000000E+00  0.00000000E+00
  0.00000000E+00  0.00000000E+00  0.00000000E+00
  0.00000000E+00  0.00000000E+00  0.00000000E+00
  0.00000000E+00  0.00000000E+00  0.00000000E+00
  0.00000000E+00  0.00000000E+00  0.00000000E+00
  0.00000000E+00  0.00000000E+00  0.00000000E+00
  0.00000000E+00  0.00000000E+00  0.00000000E+00
  0.00000000E+00  0.00000000E+00  0.00000000E+00
  0.00000000E+00  0.00000000E+00  0.00000000E+00
  0.00000000E+00  0.00000000E+00  0.00000000E+00
  0.00000000E+00  0.00000000E+00  0.00000000E+00
  0.00000000E+00  0.00000000E+00  0.00000000E+00
  0.00000000E+00  0.00000000E+00  0.00000000E+00
  0.00000000E+00  0.00000000E+00  0.00000000E+00
  0.00000000E+00  0.00000000E+00  0.00000000E+00
  0.00000000E+00  0.00000000E+00  0.00000000E+00
  0.00000000E+00  0.00000000E+00  0.00000000E+00
  0.00000000E+00  0.00000000E+00  0.00000000E+00
  0.00000000E+00  0.00000000E+00  0.00000000E+00
  0.00000000E+00  0.00000000E+00  0.00000000E+00
  0.00000000E+00  0.00000000E+00  0.00000000E+00
  0.00000000E+00  0.00000000E+00  0.00000000E+00
  0.00000000E+00  0.00000000E+00  0.00000000E+00
  0.00000000E+00  0.00000000E+00  0.00000000E+00
  0.00000000E+00  0.00000000E+00  0.00000000E+00
  0.00000000E+00  0.00000000E+00  0.00000000E+00
  0.00000000E+00  0.00000000E+00  0.00000000E+00
  0.00000000E+00  0.00000000E+00  0.00000000E+00
  0.00000000E+00  0.00000000E+00  0.00000000E+00
  0.00000000E+00  0.00000000E+00  0.00000000E+00
  0.00000000E+00  0.00000000E+00  0.00000000E+00
  0.00000000E+00  0.00000000E+00  0.00000000E+00
  0.00000000E+00  0.00000000E+00  0.00000000E+00
  0.00000000E+00  0.00000000E+00  0.00000000E+00
  0.00000000E+00  0.00000000E+00  0.00000000E+00
  0.00000000E+00  0.00000000E+00  0.00000000E+00
  0.00000000E+00  0.00000000E+00  0.00000000E+00
  0.00000000E+00  0.00000000E+00  0.00000000E+00
  0.00000000E+00  0.00000000E+00  0.00000000E+00
