 C                                      
    1.000000000000000     
    28.0500000000000007    0.0000000000000000    0.0000000000000000
     0.0000000000000000    8.0999999999999996    0.0000000000000000
     0.0000000000000000    0.0000000000000000   33.5000000000000000
   C 
    92
Direct
     0.0331899465240610    0.1368419753086414    0.4807880597014957
     0.0324847058823536    0.3158283950617289    0.4857820895522380
     0.0762680926916204    0.0610285185185191    0.4882029850746292
     0.0708081996434942    0.3952555555555577    0.5009880597014913
     0.1196021390374327    0.1442913580246881    0.4936537313432865
     0.1167511586452790    0.3135987654320971    0.5013611940298475
     0.1640367201426045    0.0620259259259228    0.4928955223880607
     0.1632452762923364    0.3960888888888903    0.5055343283582090
     0.2064003565062364    0.1443283950617271    0.4920208955223870
     0.2062203208556141    0.3121358024691361    0.4971671641791033
     0.2499137254901953    0.0673658024691335    0.4832567164179125
     0.2524652406417118    0.3951962962962980    0.4932238805970144
     0.2921251336898365    0.1459012345679014    0.4743432835820869
     0.2928128342245984    0.3132271604938239    0.4812985074626894
     0.3355319073083791    0.0646479012345651    0.4662089552238839
     0.3383946524064143    0.3868790123456805    0.4787910447761163
     0.3793761140819996    0.1431345679012352    0.4581611940298487
     0.3796327985739723    0.3111530864197505    0.4646835820895490
     0.4207272727272695    0.0619375308641992    0.4440328358208987
     0.4230124777183590    0.3946518518518545    0.4576805970149280
     0.4636898395721900    0.1410419753086387    0.4368686567164204
     0.4631586452762946    0.3133456790123432    0.4393044776119410
     0.5056007130124769    0.0620396296296306    0.4256000000000029
     0.5064812834224597    0.3905160493827182    0.4318208955223852
     0.5486096256684476    0.1391444444444474    0.4158567164179132
     0.5497967914438533    0.3027950617283963    0.4214716417910438
     0.5925418894830656    0.0542469135802435    0.4064835820895496
     0.5948627450980410    0.3850493827160477    0.4145283582089547
     0.6391443850267393    0.1332753086419771    0.4021402985074616
     0.6388627450980380    0.2982691358024709    0.4067402985074651
     0.6848734402852017    0.0535003703703723    0.3998059701492522
     0.6837290552584676    0.3851864197530830    0.4047731343283587
     0.7293333333333365    0.1420074074074051    0.3971850746268686
     0.7302638146167553    0.3098049382716042    0.3996985074626878
     0.7743493761140812    0.0619683950617258    0.4056656716417919
     0.7746417112299468    0.3873753086419782    0.4090268656716418
     0.8189839572192525    0.1357074074074092    0.4132000000000033
     0.8184598930481286    0.3068876543209882    0.4176029850746303
     0.8598039215686271    0.0544219753086423    0.4309402985074655
     0.8610338680926901    0.3879728395061761    0.4305134328358236
     0.9034901960784296    0.1399753086419722    0.4417164179104489
     0.9019393939393936    0.3052716049382695    0.4454089552238827
     0.9430909090909125    0.0540249382716027    0.4581999999999979
     0.9406060606060578    0.3862037037037069    0.4643552238805952
     0.9839893048128374    0.1376740740740772    0.4677671641791079
     0.9831229946524047    0.3073518518518483    0.4716089552238785
     0.0272163636363629    0.6435345679012343    0.4963074626865662
     0.0285329411764721    0.8178345679012367    0.4912477611940318
     0.0704442067736153    0.5662222222222226    0.5048985074626842
     0.0738146167557900    0.8980419753086437    0.4948298507462709
     0.1168606060606052    0.6477975308641959    0.5059820895522407
     0.1180884135472340    0.8147172839506140    0.5030716417910455
     0.1607850267379689    0.5608333333333348    0.5088537313432866
     0.1625226381461644    0.8922493827160523    0.5008089552238815
     0.2090509803921563    0.6392049382716039    0.5083134328358199
     0.2064064171122979    0.8120506172839512    0.4985074626865682
     0.2525351158645250    0.5572888888888912    0.5003104477611942
     0.2508784313725485    0.8955938271604964    0.4887492537313420
     0.2969896613190741    0.6470901234567918    0.4918029850746279
     0.2951194295900166    0.8161876543209843    0.4863582089552239
     0.3389532976827070    0.5611703703703697    0.4807850746268656
     0.3355825311942979    0.8931888888888864    0.4681283582089577
     0.3806060606060626    0.6434580246913555    0.4689880597014948
     0.3782673796791443    0.8109086419753098    0.4604059701492531
     0.4245418894830664    0.5633444444444464    0.4564417910447744
     0.4214652406417088    0.8926197530864215    0.4463253731343286
     0.4676577540106948    0.6404111111111135    0.4446477611940267
     0.4649304812834245    0.8085395061728420    0.4372716417910425
     0.5097611408199612    0.5602407407407384    0.4337253731343296
     0.5054046345811045    0.8888716049382737    0.4248776119402962
     0.5521033868092715    0.6416580246913597    0.4236029850746235
     0.5510231729055235    0.8066703703703695    0.4160626865671659
     0.5962210338680904    0.5510061728395073    0.4176746268656686
     0.5927272727272737    0.8841395061728363    0.4042776119403015
     0.6399857397504434    0.6320382716049409    0.4116895522388049
     0.6398680926916214    0.8023185185185184    0.4042895522388079
     0.6859251336898424    0.5516172839506197    0.4092059701492516
     0.6853155080213895    0.8835975308642006    0.3986000000000018
     0.7283672014260247    0.6398691358024706    0.4087194029850778
     0.7312156862745098    0.8099074074074082    0.4039074626865684
     0.7733547237076621    0.5561086419753067    0.4126776119402962
     0.7748057040998191    0.8886395061728365    0.4113194029850717
     0.8156434937611436    0.6355074074074096    0.4266626865671626
     0.8145525846702313    0.8025000000000020    0.4267014925373118
     0.8575258467023161    0.5582543209876576    0.4369820895522381
     0.8568235294117628    0.8851543209876525    0.4390089552238834
     0.8966595365418897    0.6368283950617268    0.4553880597014910
     0.8969803921568626    0.8057666666666634    0.4575194029850778
     0.9376898395721938    0.5555827160493862    0.4697791044776096
     0.9367985739750466    0.8947061728395056    0.4708746268656725
     0.9767985739750458    0.6364814814814821    0.4863253731343278
     0.9761426024955426    0.8075913580246947    0.4854746268656740
 
  0.00000000E+00  0.00000000E+00  0.00000000E+00
  0.00000000E+00  0.00000000E+00  0.00000000E+00
  0.00000000E+00  0.00000000E+00  0.00000000E+00
  0.00000000E+00  0.00000000E+00  0.00000000E+00
  0.00000000E+00  0.00000000E+00  0.00000000E+00
  0.00000000E+00  0.00000000E+00  0.00000000E+00
  0.00000000E+00  0.00000000E+00  0.00000000E+00
  0.00000000E+00  0.00000000E+00  0.00000000E+00
  0.00000000E+00  0.00000000E+00  0.00000000E+00
  0.00000000E+00  0.00000000E+00  0.00000000E+00
  0.00000000E+00  0.00000000E+00  0.00000000E+00
  0.00000000E+00  0.00000000E+00  0.00000000E+00
  0.00000000E+00  0.00000000E+00  0.00000000E+00
  0.00000000E+00  0.00000000E+00  0.00000000E+00
  0.00000000E+00  0.00000000E+00  0.00000000E+00
  0.00000000E+00  0.00000000E+00  0.00000000E+00
  0.00000000E+00  0.00000000E+00  0.00000000E+00
  0.00000000E+00  0.00000000E+00  0.00000000E+00
  0.00000000E+00  0.00000000E+00  0.00000000E+00
  0.00000000E+00  0.00000000E+00  0.00000000E+00
  0.00000000E+00  0.00000000E+00  0.00000000E+00
  0.00000000E+00  0.00000000E+00  0.00000000E+00
  0.00000000E+00  0.00000000E+00  0.00000000E+00
  0.00000000E+00  0.00000000E+00  0.00000000E+00
  0.00000000E+00  0.00000000E+00  0.00000000E+00
  0.00000000E+00  0.00000000E+00  0.00000000E+00
  0.00000000E+00  0.00000000E+00  0.00000000E+00
  0.00000000E+00  0.00000000E+00  0.00000000E+00
  0.00000000E+00  0.00000000E+00  0.00000000E+00
  0.00000000E+00  0.00000000E+00  0.00000000E+00
  0.00000000E+00  0.00000000E+00  0.00000000E+00
  0.00000000E+00  0.00000000E+00  0.00000000E+00
  0.00000000E+00  0.00000000E+00  0.00000000E+00
  0.00000000E+00  0.00000000E+00  0.00000000E+00
  0.00000000E+00  0.00000000E+00  0.00000000E+00
  0.00000000E+00  0.00000000E+00  0.00000000E+00
  0.00000000E+00  0.00000000E+00  0.00000000E+00
  0.00000000E+00  0.00000000E+00  0.00000000E+00
  0.00000000E+00  0.00000000E+00  0.00000000E+00
  0.00000000E+00  0.00000000E+00  0.00000000E+00
  0.00000000E+00  0.00000000E+00  0.00000000E+00
  0.00000000E+00  0.00000000E+00  0.00000000E+00
  0.00000000E+00  0.00000000E+00  0.00000000E+00
  0.00000000E+00  0.00000000E+00  0.00000000E+00
  0.00000000E+00  0.00000000E+00  0.00000000E+00
  0.00000000E+00  0.00000000E+00  0.00000000E+00
  0.00000000E+00  0.00000000E+00  0.00000000E+00
  0.00000000E+00  0.00000000E+00  0.00000000E+00
  0.00000000E+00  0.00000000E+00  0.00000000E+00
  0.00000000E+00  0.00000000E+00  0.00000000E+00
  0.00000000E+00  0.00000000E+00  0.00000000E+00
  0.00000000E+00  0.00000000E+00  0.00000000E+00
  0.00000000E+00  0.00000000E+00  0.00000000E+00
  0.00000000E+00  0.00000000E+00  0.00000000E+00
  0.00000000E+00  0.00000000E+00  0.00000000E+00
  0.00000000E+00  0.00000000E+00  0.00000000E+00
  0.00000000E+00  0.00000000E+00  0.00000000E+00
  0.00000000E+00  0.00000000E+00  0.00000000E+00
  0.00000000E+00  0.00000000E+00  0.00000000E+00
  0.00000000E+00  0.00000000E+00  0.00000000E+00
  0.00000000E+00  0.00000000E+00  0.00000000E+00
  0.00000000E+00  0.00000000E+00  0.00000000E+00
  0.00000000E+00  0.00000000E+00  0.00000000E+00
  0.00000000E+00  0.00000000E+00  0.00000000E+00
  0.00000000E+00  0.00000000E+00  0.00000000E+00
  0.00000000E+00  0.00000000E+00  0.00000000E+00
  0.00000000E+00  0.00000000E+00  0.00000000E+00
  0.00000000E+00  0.00000000E+00  0.00000000E+00
  0.00000000E+00  0.00000000E+00  0.00000000E+00
  0.00000000E+00  0.00000000E+00  0.00000000E+00
  0.00000000E+00  0.00000000E+00  0.00000000E+00
  0.00000000E+00  0.00000000E+00  0.00000000E+00
  0.00000000E+00  0.00000000E+00  0.00000000E+00
  0.00000000E+00  0.00000000E+00  0.00000000E+00
  0.00000000E+00  0.00000000E+00  0.00000000E+00
  0.00000000E+00  0.00000000E+00  0.00000000E+00
  0.00000000E+00  0.00000000E+00  0.00000000E+00
  0.00000000E+00  0.00000000E+00  0.00000000E+00
  0.00000000E+00  0.00000000E+00  0.00000000E+00
  0.00000000E+00  0.00000000E+00  0.00000000E+00
  0.00000000E+00  0.00000000E+00  0.00000000E+00
  0.00000000E+00  0.00000000E+00  0.00000000E+00
  0.00000000E+00  0.00000000E+00  0.00000000E+00
  0.00000000E+00  0.00000000E+00  0.00000000E+00
  0.00000000E+00  0.00000000E+00  0.00000000E+00
  0.00000000E+00  0.00000000E+00  0.00000000E+00
  0.00000000E+00  0.00000000E+00  0.00000000E+00
  0.00000000E+00  0.00000000E+00  0.00000000E+00
  0.00000000E+00  0.00000000E+00  0.00000000E+00
  0.00000000E+00  0.00000000E+00  0.00000000E+00
  0.00000000E+00  0.00000000E+00  0.00000000E+00
  0.00000000E+00  0.00000000E+00  0.00000000E+00
