 C 
 1.0000000000000000
    28.0500000000000007    0.0000000000000000    0.0000000000000000
     0.0000000000000000    8.0999999999999996    0.0000000000000000
     0.0000000000000000    0.0000000000000000   33.5000000000000000
 C  
  92
Cartesian
  0.9309780000000000  1.1084200000000000 16.1064000000000007
  0.9111960000000000  2.5582099999999999 16.2737000000000016
  2.1393200000000001  0.4943310000000000 16.3548000000000009
  1.9861700000000000  3.2015699999999998 16.7831000000000010
  3.3548399999999998  1.1687600000000000 16.5374000000000017
  3.2748699999999999  2.5401500000000001 16.7956000000000003
  4.6012300000000002  0.5024100000000000 16.5120000000000005
  4.5790300000000004  3.2083200000000001 16.9354000000000013
  5.7895300000000001  1.1690600000000000 16.4827000000000012
  5.7844800000000003  2.5283000000000002 16.6551000000000009
  7.0100800000000003  0.5456630000000000 16.1890999999999998
  7.0816499999999998  3.2010900000000002 16.5229999999999997
  8.1941100000000002  1.1818000000000000 15.8904999999999994
  8.2134000000000000  2.5371400000000000 16.1234999999999999
  9.4116700000000009  0.5236480000000000 15.6180000000000003
  9.4919700000000002  3.1337199999999998 16.0395000000000003
 10.6415000000000006  1.1593899999999999 15.3483999999999998
 10.6486999999999998  2.5203400000000000 15.5669000000000004
 11.8013999999999992  0.5016940000000000 14.8750999999999998
 11.8655000000000008  3.1966800000000002 15.3323000000000000
 13.0065000000000008  1.1424399999999999 14.6350999999999996
 12.9916000000000000  2.5381000000000000 14.7166999999999994
 14.1821000000000002  0.5025210000000000 14.2576000000000001
 14.2067999999999994  3.1631800000000001 14.4659999999999993
 15.3885000000000005  1.1270700000000000 13.9312000000000005
 15.4217999999999993  2.4526400000000002 14.1193000000000008
 16.6207999999999991  0.4394000000000000 13.6172000000000004
 16.6859000000000002  3.1189000000000000 13.8866999999999994
 17.9280000000000008  1.0795300000000001 13.4717000000000002
 17.9201000000000015  2.4159799999999998 13.6257999999999999
 19.2106999999999992  0.4333530000000000 13.3934999999999995
 19.1785999999999994  3.1200100000000002 13.5599000000000007
 20.4577999999999989  1.1502600000000001 13.3056999999999999
 20.4838999999999984  2.5094200000000000 13.3899000000000008
 21.7205000000000013  0.5019439999999999 13.5898000000000003
 21.7286999999999999  3.1377400000000000 13.7024000000000008
 22.9725000000000001  1.0992299999999999 13.8422000000000001
 22.9577999999999989  2.4857900000000002 13.9896999999999991
 24.1174999999999997  0.4408180000000000 14.4365000000000006
 24.1520000000000010  3.1425800000000002 14.4222000000000001
 25.3429000000000002  1.1337999999999999 14.7974999999999994
 25.2993999999999986  2.4727000000000001 14.9212000000000007
 26.4537000000000013  0.4376020000000000 15.3497000000000003
 26.3840000000000003  3.1282500000000000 15.5558999999999994
 27.6008999999999993  1.1151599999999999 15.6701999999999995
 27.5765999999999991  2.4895499999999999 15.7988999999999997
  0.7634190000000000  5.2126299999999999 16.6263000000000005
  0.8003490000000000  6.6244600000000000 16.4568000000000012
  1.9759599999999999  4.5864000000000003 16.9141000000000012
  2.0705000000000000  7.2741400000000001 16.5767999999999986
  3.2779400000000001  5.2471600000000000 16.9503999999999984
  3.3123800000000001  6.5992100000000002 16.8529000000000018
  4.5100199999999999  4.5427499999999998 17.0466000000000015
  4.5587600000000004  7.2272200000000000 16.7771000000000008
  5.8638800000000000  5.1775599999999997 17.0285000000000011
  5.7896999999999998  6.5776100000000000 16.6999999999999993
  7.0836100000000002  4.5140399999999996 16.7604000000000006
  7.0371400000000000  7.2543100000000003 16.3731000000000009
  8.3305600000000002  5.2414300000000003 16.4754000000000005
  8.2781000000000002  6.6111199999999997 16.2929999999999993
  9.5076400000000003  4.5454800000000004 16.1063000000000009
  9.4130900000000004  7.2348299999999997 15.6822999999999997
 10.6760000000000002  5.2120100000000003 15.7111000000000001
 10.6104000000000003  6.5683600000000002 15.4236000000000004
 11.9084000000000003  4.5630899999999999 15.2908000000000008
 11.8221000000000007  7.2302200000000001 14.9519000000000002
 13.1178000000000008  5.1873300000000002 14.8956999999999997
 13.0412999999999997  6.5491700000000002 14.6486000000000001
 14.2988000000000000  4.5379500000000004 14.5297999999999998
 14.1766000000000005  7.1998600000000001 14.2333999999999996
 15.4864999999999995  5.1974299999999998 14.1906999999999996
 15.4562000000000008  6.5340299999999996 13.9381000000000004
 16.7240000000000002  4.4631499999999997 13.9921000000000006
 16.6260000000000012  7.1615300000000000 13.5433000000000003
 17.9515999999999991  5.1195100000000000 13.7916000000000007
 17.9482999999999997  6.4987800000000000 13.5436999999999994
 19.2402000000000015  4.4680999999999997 13.7083999999999993
 19.2230999999999987  7.1571400000000001 13.3530999999999995
 20.4307000000000016  5.1829400000000003 13.6920999999999999
 20.5106000000000002  6.5602499999999999 13.5309000000000008
 21.6925999999999988  4.5044800000000000 13.8247000000000000
 21.7332999999999998  7.1979800000000003 13.7791999999999994
 22.8787999999999982  5.1476100000000002 14.2932000000000006
 22.8481999999999985  6.5002500000000003 14.2944999999999993
 24.0535999999999994  4.5218600000000002 14.6388999999999996
 24.0338999999999992  7.1697499999999996 14.7067999999999994
 25.1512999999999991  5.1583100000000002 15.2554999999999996
 25.1602999999999994  6.5267099999999996 15.3269000000000002
 26.3021999999999991  4.5002199999999997 15.7376000000000005
 26.2772000000000006  7.2471199999999998 15.7743000000000002
 27.3992000000000004  5.1555000000000000 16.2918999999999983
 27.3808000000000007  6.5414899999999996 16.2634000000000007
