 C 
 1.0000000000000000
    28.0500000000000007    0.0000000000000000    0.0000000000000000
     0.0000000000000000    8.0999999999999996    0.0000000000000000
     0.0000000000000000    0.0000000000000000   33.5000000000000000
 C  
  92
Cartesian
  0.2107330000000000  0.8735650000000000 15.0132999999999992
  0.2774010000000000  2.2607300000000001 14.9573999999999998
  1.4476899999999999  0.1983760000000000 15.1991999999999994
  1.4643200000000001  2.9565199999999998 15.2015999999999991
  2.7436699999999998  0.8253130000000000 15.3481000000000005
  2.7199300000000002  2.2143700000000002 15.3910000000000000
  3.9161700000000002  0.1734170000000000 15.7124000000000006
  3.8555799999999998  2.8616500000000000 15.8241999999999994
  5.1200500000000000  0.8673600000000000 16.0668000000000006
  5.1067799999999997  2.2193800000000001 16.0616999999999983
  6.2956899999999996  0.1913510000000000 16.4825000000000017
  6.3186999999999998  2.8460299999999998 16.4901000000000018
  7.4920299999999997  0.8468220000000000 16.6997999999999998
  7.5357200000000004  2.2099299999999999 16.6692999999999998
  8.7095300000000009  0.1794230000000000 17.1767000000000003
  8.7157800000000005  2.8633199999999999 17.1262000000000008
  9.8426100000000005  0.8098130000000000 17.5475999999999992
  9.9002199999999991  2.2090000000000001 17.4876000000000005
 11.0481999999999996  0.1529300000000000 17.8980999999999995
 11.0760000000000005  2.8305600000000002 17.8944000000000010
 12.2501999999999995  0.7945510000000000 18.0689999999999991
 12.3008000000000006  2.2067199999999998 18.0239000000000011
 13.5361999999999991  0.1818850000000000 18.2203000000000017
 13.5258000000000003  2.8525999999999998 18.2577999999999996
 14.7872000000000003  0.8252590000000000 18.2246999999999986
 14.7911000000000001  2.1984699999999999 18.2915999999999990
 16.0420000000000016  0.1772020000000000 18.0450000000000017
 16.0614999999999988  2.8741300000000001 18.2630000000000017
 17.2819000000000003  0.8747770000000000 17.8985999999999983
 17.2733999999999988  2.2117399999999998 17.9952000000000005
 18.3939999999999984  0.1932220000000000 17.4249000000000009
 18.4995000000000012  2.8497400000000002 17.6899000000000015
 19.5932999999999993  0.8128010000000000 16.9689000000000014
 19.6630000000000003  2.1666200000000000 17.2071000000000005
 20.7331000000000003  0.1549330000000000 16.4508000000000010
 20.7390000000000008  2.8735100000000000 16.6939999999999991
 21.9210999999999991  0.8566770000000000 16.0742000000000012
 21.9079000000000015  2.1943700000000002 16.1362999999999985
 23.1052000000000000  0.2403350000000000 15.7030999999999992
 23.1768999999999998  2.8763600000000000 15.8797999999999995
 24.3069999999999986  0.8833630000000000 15.3524999999999991
 24.3168000000000006  2.2437000000000000 15.4718999999999998
 25.5654000000000003  0.2032460000000000 15.1262000000000008
 25.5684000000000005  2.9276200000000001 15.0959000000000003
 26.8109999999999999  0.8920860000000000 15.1344999999999992
 26.8084999999999987  2.2691900000000000 15.0853000000000002
  0.1766620000000000  4.8945999999999996 15.2667000000000002
  0.1434260000000000  6.2771499999999998 15.3931000000000004
  1.3500799999999999  4.2362500000000001 15.5213000000000001
  1.3935800000000000  6.9392100000000001 15.4321000000000002
  2.6567699999999999  4.8708400000000003 15.8101000000000003
  2.5942599999999998  6.2579700000000003 15.7805000000000000
  3.8384100000000001  4.2113600000000000 16.1138000000000012
  3.8503799999999999  6.9398200000000001 15.9740000000000002
  5.0238300000000002  4.9022399999999999 16.4750000000000014
  5.0309100000000004  6.2664600000000004 16.4076999999999984
  6.2407599999999999  4.1920400000000004 16.6803999999999988
  6.2687099999999996  6.8789600000000002 16.6937999999999995
  7.4804300000000001  4.8468400000000003 16.9833999999999996
  7.4275000000000002  6.2217399999999996 17.0570999999999984
  8.6646000000000001  4.1894900000000002 17.3187999999999995
  8.6451700000000002  6.9463400000000002 17.4557000000000002
  9.8066499999999994  4.8852000000000002 17.8396000000000008
  9.8252199999999998  6.2696699999999996 17.8672000000000004
 11.0401000000000007  4.1837900000000001 18.1828000000000003
 11.0530000000000008  6.8714000000000004 18.0727000000000011
 12.2951999999999995  4.8239900000000002 18.4491000000000014
 12.2969000000000008  6.1924700000000001 18.3610000000000007
 13.5328999999999997  4.1762699999999997 18.5124999999999993
 13.5309000000000008  6.9304600000000001 18.4110000000000014
 14.7531999999999996  4.8759600000000001 18.6233000000000004
 14.8087000000000000  6.1758199999999999 18.4789999999999992
 16.0869999999999997  4.2296300000000002 18.4558000000000000
 16.0152999999999999  6.9097600000000003 18.1209999999999987
 17.2637999999999998  4.8714300000000001 18.1162999999999990
 17.3045000000000009  6.2867899999999999 18.0338999999999992
 18.4287999999999990  4.2027999999999999 17.7235000000000014
 18.3600999999999992  6.8968999999999996 17.3915000000000006
 19.6591999999999985  4.9128699999999998 17.3382000000000005
 19.6281999999999996  6.2555300000000003 17.1389999999999993
 20.8084999999999987  4.2517100000000001 16.8648999999999987
 20.7791999999999994  6.8782699999999997 16.5588000000000015
 21.9970999999999997  4.9081500000000000 16.3884000000000007
 21.9588000000000001  6.2881799999999997 16.1951999999999998
 23.1256999999999984  4.2485799999999996 15.8778000000000006
 23.1946000000000012  6.9538000000000002 15.8375000000000004
 24.3475000000000001  4.9209800000000001 15.6721000000000004
 24.3938999999999986  6.3129700000000000 15.6362000000000005
 25.5155999999999992  4.2635699999999996 15.4384999999999994
 25.5945000000000000  6.9601400000000000 15.3191000000000006
 26.7832000000000008  4.8968600000000002 15.3653999999999993
 26.7824999999999989  6.2697799999999999 15.3324999999999996
