 C                                      
    1.000000000000000     
    28.0500000000000007    0.0000000000000000    0.0000000000000000
     0.0000000000000000    8.0999999999999996    0.0000000000000000
     0.0000000000000000    0.0000000000000000   33.5000000000000000
   C 
    92
Direct
     0.0046145811051659    0.1008488888888905    0.5074388059701462
     0.0027546238859202    0.2785074074074103    0.5101402985074657
     0.0460631016042754    0.0174750617283976    0.4997671641791044
     0.0474969696969723    0.3545864197530832    0.5039343283582056
     0.0900388591800336    0.1038466666666693    0.4887671641791016
     0.0902206773618559    0.2723975308641968    0.4877761194029873
     0.1335878787878784    0.0218272839506142    0.4836865671641775
     0.1348602495543645    0.3522654320987684    0.4855552238805956
     0.1751885918003566    0.1067491358024668    0.4722507462686565
     0.1778459893048137    0.2727308641975341    0.4752059701492541
     0.2197971479500893    0.0245593827160491    0.4647492537313411
     0.2194463458110505    0.3538086419753057    0.4633761194029873
     0.2640598930481275    0.1047765432098799    0.4584955223880627
     0.2632994652406424    0.2767444444444465    0.4572955223880584
     0.3093058823529446    0.0243067901234539    0.4595373134328327
     0.3077219251336913    0.3597555555555587    0.4562835820895543
     0.3538099821746883    0.1039197530864229    0.4556238805970168
     0.3528531194295894    0.2795938271604967    0.4531343283582103
     0.3971586452762921    0.0179846913580235    0.4607492537313433
     0.3971550802139063    0.3553703703703732    0.4570417910447730
     0.4414010695187187    0.1032669135802493    0.4639611940298494
     0.4422673796791443    0.2754246913580261    0.4616447761193996
     0.4842673796791459    0.0221201234567872    0.4726597014925389
     0.4836327985739786    0.3518530864197515    0.4717164179104500
     0.5282067736185354    0.1053735802469120    0.4753313432835853
     0.5293511586452766    0.2759395061728398    0.4753432835820917
     0.5721497326203178    0.0262723456790113    0.4863552238805937
     0.5719679144385026    0.3514617283950585    0.4860507462686599
     0.6172370766488413    0.1035848148148162    0.4908059701492533
     0.6152905525846677    0.2730679012345689    0.4942328358208954
     0.6585632798573968    0.0198260493827149    0.5069940298507447
     0.6565989304812803    0.3553135802469143    0.5100358208955242
     0.7010017825311934    0.0994709876543212    0.5155731343283563
     0.7002852049910899    0.2712765432098792    0.5162865671641796
     0.7428092691622084    0.0200916049382727    0.5282388059701475
     0.7424456327985709    0.3596962962962991    0.5323970149253725
     0.7850481283422468    0.1058560493827159    0.5344746268656735
     0.7853618538324412    0.2716469135802484    0.5348626865671662
     0.8273511586452784    0.0141655555555573    0.5417850746268655
     0.8271871657753991    0.3562753086419761    0.5427283582089544
     0.8723600713012445    0.1047883950617319    0.5382179104477629
     0.8722067736185366    0.2694679012345702    0.5390268656716444
     0.9160534759358256    0.0228837037037053    0.5289940298507432
     0.9152549019607861    0.3583518518518503    0.5377940298507440
     0.9555650623885938    0.1029048148148135    0.5190925373134334
     0.9547736185383258    0.2753999999999976    0.5231910447761194
     0.0113372905525821    0.6035481481481497    0.5271671641791045
     0.0107498395721919    0.7738259259259266    0.5240895522388058
     0.0507440285204979    0.5169691358024693    0.5138985074626845
     0.0497950089126533    0.8572506172839525    0.5077074626865681
     0.0937836007130102    0.6031839506172858    0.5027671641791045
     0.0931122994652398    0.7705358024691336    0.5030925373134352
     0.1351422459893072    0.5239839506172856    0.4901223880597030
     0.1359575757575726    0.8534876543209862    0.4922089552238802
     0.1780973262032077    0.6038666666666686    0.4819492537313437
     0.1789429590017804    0.7740419753086414    0.4858208955223873
     0.2215696969696950    0.5206481481481475    0.4698149253731358
     0.2202456327985729    0.8534271604938297    0.4734805970149267
     0.2642171122994625    0.6028814814814822    0.4706805970149261
     0.2646003565062358    0.7732382716049386    0.4746179104477619
     0.3095204991087357    0.5205358024691336    0.4664567164179090
     0.3087907308377922    0.8587037037037035    0.4723373134328384
     0.3530459893048103    0.6031074074074070    0.4733671641791020
     0.3531871657754024    0.7686790123456788    0.4727522388059668
     0.3974973262032080    0.5164580246913602    0.4713074626865676
     0.3966096256684466    0.8539765432098747    0.4685223880597036
     0.4399928698752262    0.6007098765432133    0.4748537313432806
     0.4410017825311954    0.7673691358024683    0.4752626865671630
     0.4840071301247804    0.5204641975308633    0.4788059701492529
     0.4850516934046354    0.8479197530864226    0.4791283582089534
     0.5284135472370792    0.6009975308641984    0.4900388059701513
     0.5263672014260266    0.7755530864197553    0.4913373134328367
     0.5716292335115867    0.5182345679012315    0.4941104477611944
     0.5688484848484876    0.8616395061728426    0.4956089552238794
     0.6105026737967947    0.6051469135802492    0.5106985074626849
     0.6109090909090895    0.7815864197530900    0.5092298507462658
     0.6529839572192486    0.5199493827160495    0.5186208955223890
     0.6543493761140837    0.8565209876543207    0.5185492537313436
     0.6943208556149756    0.6045259259259268    0.5360835820895531
     0.6946702317290558    0.7732814814814830    0.5362746268656693
     0.7387878787878819    0.5263148148148176    0.5449850746268652
     0.7396292335115859    0.8561876543209905    0.5409880597014904
     0.7821746880570402    0.5981135802469169    0.5509791044776122
     0.7829483065953653    0.7718888888888884    0.5525761194029855
     0.8276791443850300    0.5233913580246892    0.5491014925373108
     0.8277860962566876    0.8502987654321004    0.5477940298507491
     0.8723992869875232    0.6017358024691362    0.5497641791044785
     0.8714901960784331    0.7691728395061759    0.5429791044776096
     0.9182424242424219    0.5224839506172856    0.5443970149253730
     0.9136720142602499    0.8526024691358032    0.5313940298507447
     0.9598146167557928    0.6098506172839535    0.5358238805970146
     0.9573155080213880    0.7751123456790125    0.5295194029850734
 
  0.00000000E+00  0.00000000E+00  0.00000000E+00
  0.00000000E+00  0.00000000E+00  0.00000000E+00
  0.00000000E+00  0.00000000E+00  0.00000000E+00
  0.00000000E+00  0.00000000E+00  0.00000000E+00
  0.00000000E+00  0.00000000E+00  0.00000000E+00
  0.00000000E+00  0.00000000E+00  0.00000000E+00
  0.00000000E+00  0.00000000E+00  0.00000000E+00
  0.00000000E+00  0.00000000E+00  0.00000000E+00
  0.00000000E+00  0.00000000E+00  0.00000000E+00
  0.00000000E+00  0.00000000E+00  0.00000000E+00
  0.00000000E+00  0.00000000E+00  0.00000000E+00
  0.00000000E+00  0.00000000E+00  0.00000000E+00
  0.00000000E+00  0.00000000E+00  0.00000000E+00
  0.00000000E+00  0.00000000E+00  0.00000000E+00
  0.00000000E+00  0.00000000E+00  0.00000000E+00
  0.00000000E+00  0.00000000E+00  0.00000000E+00
  0.00000000E+00  0.00000000E+00  0.00000000E+00
  0.00000000E+00  0.00000000E+00  0.00000000E+00
  0.00000000E+00  0.00000000E+00  0.00000000E+00
  0.00000000E+00  0.00000000E+00  0.00000000E+00
  0.00000000E+00  0.00000000E+00  0.00000000E+00
  0.00000000E+00  0.00000000E+00  0.00000000E+00
  0.00000000E+00  0.00000000E+00  0.00000000E+00
  0.00000000E+00  0.00000000E+00  0.00000000E+00
  0.00000000E+00  0.00000000E+00  0.00000000E+00
  0.00000000E+00  0.00000000E+00  0.00000000E+00
  0.00000000E+00  0.00000000E+00  0.00000000E+00
  0.00000000E+00  0.00000000E+00  0.00000000E+00
  0.00000000E+00  0.00000000E+00  0.00000000E+00
  0.00000000E+00  0.00000000E+00  0.00000000E+00
  0.00000000E+00  0.00000000E+00  0.00000000E+00
  0.00000000E+00  0.00000000E+00  0.00000000E+00
  0.00000000E+00  0.00000000E+00  0.00000000E+00
  0.00000000E+00  0.00000000E+00  0.00000000E+00
  0.00000000E+00  0.00000000E+00  0.00000000E+00
  0.00000000E+00  0.00000000E+00  0.00000000E+00
  0.00000000E+00  0.00000000E+00  0.00000000E+00
  0.00000000E+00  0.00000000E+00  0.00000000E+00
  0.00000000E+00  0.00000000E+00  0.00000000E+00
  0.00000000E+00  0.00000000E+00  0.00000000E+00
  0.00000000E+00  0.00000000E+00  0.00000000E+00
  0.00000000E+00  0.00000000E+00  0.00000000E+00
  0.00000000E+00  0.00000000E+00  0.00000000E+00
  0.00000000E+00  0.00000000E+00  0.00000000E+00
  0.00000000E+00  0.00000000E+00  0.00000000E+00
  0.00000000E+00  0.00000000E+00  0.00000000E+00
  0.00000000E+00  0.00000000E+00  0.00000000E+00
  0.00000000E+00  0.00000000E+00  0.00000000E+00
  0.00000000E+00  0.00000000E+00  0.00000000E+00
  0.00000000E+00  0.00000000E+00  0.00000000E+00
  0.00000000E+00  0.00000000E+00  0.00000000E+00
  0.00000000E+00  0.00000000E+00  0.00000000E+00
  0.00000000E+00  0.00000000E+00  0.00000000E+00
  0.00000000E+00  0.00000000E+00  0.00000000E+00
  0.00000000E+00  0.00000000E+00  0.00000000E+00
  0.00000000E+00  0.00000000E+00  0.00000000E+00
  0.00000000E+00  0.00000000E+00  0.00000000E+00
  0.00000000E+00  0.00000000E+00  0.00000000E+00
  0.00000000E+00  0.00000000E+00  0.00000000E+00
  0.00000000E+00  0.00000000E+00  0.00000000E+00
  0.00000000E+00  0.00000000E+00  0.00000000E+00
  0.00000000E+00  0.00000000E+00  0.00000000E+00
  0.00000000E+00  0.00000000E+00  0.00000000E+00
  0.00000000E+00  0.00000000E+00  0.00000000E+00
  0.00000000E+00  0.00000000E+00  0.00000000E+00
  0.00000000E+00  0.00000000E+00  0.00000000E+00
  0.00000000E+00  0.00000000E+00  0.00000000E+00
  0.00000000E+00  0.00000000E+00  0.00000000E+00
  0.00000000E+00  0.00000000E+00  0.00000000E+00
  0.00000000E+00  0.00000000E+00  0.00000000E+00
  0.00000000E+00  0.00000000E+00  0.00000000E+00
  0.00000000E+00  0.00000000E+00  0.00000000E+00
  0.00000000E+00  0.00000000E+00  0.00000000E+00
  0.00000000E+00  0.00000000E+00  0.00000000E+00
  0.00000000E+00  0.00000000E+00  0.00000000E+00
  0.00000000E+00  0.00000000E+00  0.00000000E+00
  0.00000000E+00  0.00000000E+00  0.00000000E+00
  0.00000000E+00  0.00000000E+00  0.00000000E+00
  0.00000000E+00  0.00000000E+00  0.00000000E+00
  0.00000000E+00  0.00000000E+00  0.00000000E+00
  0.00000000E+00  0.00000000E+00  0.00000000E+00
  0.00000000E+00  0.00000000E+00  0.00000000E+00
  0.00000000E+00  0.00000000E+00  0.00000000E+00
  0.00000000E+00  0.00000000E+00  0.00000000E+00
  0.00000000E+00  0.00000000E+00  0.00000000E+00
  0.00000000E+00  0.00000000E+00  0.00000000E+00
  0.00000000E+00  0.00000000E+00  0.00000000E+00
  0.00000000E+00  0.00000000E+00  0.00000000E+00
  0.00000000E+00  0.00000000E+00  0.00000000E+00
  0.00000000E+00  0.00000000E+00  0.00000000E+00
  0.00000000E+00  0.00000000E+00  0.00000000E+00
  0.00000000E+00  0.00000000E+00  0.00000000E+00
