 C                                      
    1.000000000000000     
    28.0500000000000007    0.0000000000000000    0.0000000000000000
     0.0000000000000000    8.0999999999999996    0.0000000000000000
     0.0000000000000000    0.0000000000000000   33.5000000000000000
   C 
    92
Direct
     0.8377789661319071    0.8327654320987676   -0.1217910447761170
     0.8392477718360070    0.0060572592592578   -0.1274626865671706
     0.8790766488413553    0.7530086419753061   -0.1089552238805851
     0.8823172905525851    0.0857119753086408   -0.1202985074626781
     0.9237611408199626    0.8355296296296331   -0.1035820895522477
     0.9254224598930492    0.0033797777777806   -0.1092537313432729
     0.9641818181818209    0.7560049382716016   -0.0865671641790868
     0.9685882352941206    0.0848151851851853   -0.1000000000000085
     0.0076502673796810    0.8361246913580231   -0.0791044776119207
     0.0108498395721952    0.0019774074074093   -0.0871641791044766
     0.0483989304812837    0.7549518518518497   -0.0611940298507534
     0.0524285204991060    0.0865218518518489   -0.0752238805970222
     0.0920399286987532    0.8360444444444468   -0.0546268656716364
     0.0941090909090931    0.0024613333333363   -0.0617910447761147
     0.1336417112299486    0.7529740740740749   -0.0405970149253676
     0.1370338680926935    0.0845564197530848   -0.0534328358208853
     0.1782099821746854    0.8350444444444420   -0.0364179104477671
     0.1801344028520475    0.0034760246913592   -0.0438805970149332
     0.2226317290552586    0.7524370370370406   -0.0289552238806010
     0.2236313725490220    0.0852490123456775   -0.0397014925373043
     0.2670110516934017    0.8336358024691393   -0.0298507462686501
     0.2669058823529440    0.0020002839506148   -0.0349253731343282
     0.3126067736185405    0.7519962962962978   -0.0277611940298641
     0.3111850267379666    0.0823339506172829   -0.0367164179104265
     0.3563408199643519    0.8325493827160528   -0.0355223880596895
     0.3550320855614970    0.0008929876543178   -0.0411940298507432
     0.4002673796791427    0.7505271604938244   -0.0405970149253676
     0.3981212121212110    0.0834954320987649   -0.0507462686567095
     0.4424563279857381    0.8340864197530848   -0.0534328358208853
     0.4408413547237089    0.9997790123456767   -0.0602985074627043
     0.4865846702317285    0.7515469135802491   -0.0614925373134412
     0.4826559714795025    0.0832043209876545   -0.0719402985074566
     0.5271408199643517    0.8334641975308656   -0.0767164179104327
     0.5257183600713020    0.0014151111111076   -0.0826865671641883
     0.5715935828877008    0.7541493827160508   -0.0829850746268619
     0.5673689839572162    0.0846914814814781   -0.0955223880596918
     0.6126737967914409    0.8372407407407394   -0.0982089552238818
     0.6101426024955430    0.0035970123456792   -0.1056716417910479
     0.6561105169340493    0.7544432098765412   -0.1050746268656866
     0.6529768270944771    0.0859469135802442   -0.1167164179104390
     0.6986417112299463    0.8354604938271635   -0.1170149253731410
     0.6968948306595379    0.0032353209876561   -0.1226865671641661
     0.7432192513368960    0.7553629629629626   -0.1185074626865656
     0.7416042780748668    0.0864701234567917   -0.1295522388059709
     0.7862245989304810    0.8354345679012312   -0.1259701492537317
     0.7858609625668436    0.0063767901234542   -0.1322388059701609
     0.8381426024955445    0.3351037037037017   -0.1214925373134150
     0.8370231729055249    0.5037259259259272   -0.1140298507462632
     0.8811657754010724    0.2534444444444475   -0.1155223880597021
     0.8785811051693386    0.5869901234567934   -0.1035820895522477
     0.9237326203208553    0.3365209876543176   -0.1017910447761068
     0.9214581105169373    0.5025370370370368   -0.0952238805970040
     0.9673190730837788    0.2546086419753095   -0.0955223880596918
     0.9627130124777210    0.5852197530864203   -0.0820895522387985
     0.0079144028520517    0.3365037037037055   -0.0800000000000125
     0.0057238146167577    0.5029135802469114   -0.0716417910447689
     0.0511771836007142    0.2554493827160513   -0.0716417910447689
     0.0473686274509788    0.5850049382716023   -0.0588059701492654
     0.0923818181818206    0.3358271604938281   -0.0564179104477631
     0.0906007130124777    0.5031098765432134   -0.0489552238806112
     0.1363326203208572    0.2532728395061739   -0.0498507462686604
     0.1332199643493794    0.5832098765432079   -0.0379104477612060
     0.1785176470588254    0.3346839506172827   -0.0376119402985182
     0.1779326203208527    0.5017049382716081   -0.0322388059701382
     0.2232941176470575    0.2531419753086439   -0.0349253731343282
     0.2224752228163993    0.5835654320987658   -0.0268656716417723
     0.2674456327985766    0.3330901234567918   -0.0298507462686501
     0.2676463458110518    0.5020629629629596   -0.0250746268656741
     0.3116089126559700    0.2494185185185174   -0.0343283582089384
     0.3129711229946537    0.5836814814814844   -0.0250746268656741
     0.3562909090909088    0.3329641975308633   -0.0361194029850793
     0.3575329768270947    0.5014160493827191   -0.0298507462686501
     0.3992049910873448    0.2521888888888881   -0.0465671641791090
     0.4014438502673769    0.5827666666666644   -0.0364179104477671
     0.4427843137254897    0.3352691358024700   -0.0540298507462751
     0.4444491978609619    0.5017111111111134   -0.0474626865671723
     0.4834581105169349    0.2531456790123485   -0.0698507462686564
     0.4878823529411775    0.5833641975308623   -0.0567164179104367
     0.5267308377896640    0.3338283950617296   -0.0785074626865736
     0.5299251336898365    0.4997148148148156   -0.0698507462686564
     0.5677112299465250    0.2543641975308617   -0.0943283582089549
     0.5725846702317270    0.5860111111111124   -0.0797014925373105
     0.6116577540106931    0.3362074074074073   -0.1011940298507596
     0.6135721925133666    0.5028518518518510   -0.0931343283582038
     0.6537967914438525    0.2558259259259259   -0.1134328358209018
     0.6568734402852030    0.5865555555555559   -0.1005970149253699
     0.6981639928698726    0.3361827160493860   -0.1179104477611901
     0.6996791443850299    0.5024839506172825   -0.1089552238805851
     0.7420035650623902    0.2549456790123443   -0.1274626865671706
     0.7435900178253121    0.5882703703703669   -0.1128358208955120
     0.7856898395721927    0.3361185185185178   -0.1253731343283562
     0.7858253119429577    0.5034530864197535   -0.1176119402984881
 
  0.00000000E+00  0.00000000E+00  0.00000000E+00
  0.00000000E+00  0.00000000E+00  0.00000000E+00
  0.00000000E+00  0.00000000E+00  0.00000000E+00
  0.00000000E+00  0.00000000E+00  0.00000000E+00
  0.00000000E+00  0.00000000E+00  0.00000000E+00
  0.00000000E+00  0.00000000E+00  0.00000000E+00
  0.00000000E+00  0.00000000E+00  0.00000000E+00
  0.00000000E+00  0.00000000E+00  0.00000000E+00
  0.00000000E+00  0.00000000E+00  0.00000000E+00
  0.00000000E+00  0.00000000E+00  0.00000000E+00
  0.00000000E+00  0.00000000E+00  0.00000000E+00
  0.00000000E+00  0.00000000E+00  0.00000000E+00
  0.00000000E+00  0.00000000E+00  0.00000000E+00
  0.00000000E+00  0.00000000E+00  0.00000000E+00
  0.00000000E+00  0.00000000E+00  0.00000000E+00
  0.00000000E+00  0.00000000E+00  0.00000000E+00
  0.00000000E+00  0.00000000E+00  0.00000000E+00
  0.00000000E+00  0.00000000E+00  0.00000000E+00
  0.00000000E+00  0.00000000E+00  0.00000000E+00
  0.00000000E+00  0.00000000E+00  0.00000000E+00
  0.00000000E+00  0.00000000E+00  0.00000000E+00
  0.00000000E+00  0.00000000E+00  0.00000000E+00
  0.00000000E+00  0.00000000E+00  0.00000000E+00
  0.00000000E+00  0.00000000E+00  0.00000000E+00
  0.00000000E+00  0.00000000E+00  0.00000000E+00
  0.00000000E+00  0.00000000E+00  0.00000000E+00
  0.00000000E+00  0.00000000E+00  0.00000000E+00
  0.00000000E+00  0.00000000E+00  0.00000000E+00
  0.00000000E+00  0.00000000E+00  0.00000000E+00
  0.00000000E+00  0.00000000E+00  0.00000000E+00
  0.00000000E+00  0.00000000E+00  0.00000000E+00
  0.00000000E+00  0.00000000E+00  0.00000000E+00
  0.00000000E+00  0.00000000E+00  0.00000000E+00
  0.00000000E+00  0.00000000E+00  0.00000000E+00
  0.00000000E+00  0.00000000E+00  0.00000000E+00
  0.00000000E+00  0.00000000E+00  0.00000000E+00
  0.00000000E+00  0.00000000E+00  0.00000000E+00
  0.00000000E+00  0.00000000E+00  0.00000000E+00
  0.00000000E+00  0.00000000E+00  0.00000000E+00
  0.00000000E+00  0.00000000E+00  0.00000000E+00
  0.00000000E+00  0.00000000E+00  0.00000000E+00
  0.00000000E+00  0.00000000E+00  0.00000000E+00
  0.00000000E+00  0.00000000E+00  0.00000000E+00
  0.00000000E+00  0.00000000E+00  0.00000000E+00
  0.00000000E+00  0.00000000E+00  0.00000000E+00
  0.00000000E+00  0.00000000E+00  0.00000000E+00
  0.00000000E+00  0.00000000E+00  0.00000000E+00
  0.00000000E+00  0.00000000E+00  0.00000000E+00
  0.00000000E+00  0.00000000E+00  0.00000000E+00
  0.00000000E+00  0.00000000E+00  0.00000000E+00
  0.00000000E+00  0.00000000E+00  0.00000000E+00
  0.00000000E+00  0.00000000E+00  0.00000000E+00
  0.00000000E+00  0.00000000E+00  0.00000000E+00
  0.00000000E+00  0.00000000E+00  0.00000000E+00
  0.00000000E+00  0.00000000E+00  0.00000000E+00
  0.00000000E+00  0.00000000E+00  0.00000000E+00
  0.00000000E+00  0.00000000E+00  0.00000000E+00
  0.00000000E+00  0.00000000E+00  0.00000000E+00
  0.00000000E+00  0.00000000E+00  0.00000000E+00
  0.00000000E+00  0.00000000E+00  0.00000000E+00
  0.00000000E+00  0.00000000E+00  0.00000000E+00
  0.00000000E+00  0.00000000E+00  0.00000000E+00
  0.00000000E+00  0.00000000E+00  0.00000000E+00
  0.00000000E+00  0.00000000E+00  0.00000000E+00
  0.00000000E+00  0.00000000E+00  0.00000000E+00
  0.00000000E+00  0.00000000E+00  0.00000000E+00
  0.00000000E+00  0.00000000E+00  0.00000000E+00
  0.00000000E+00  0.00000000E+00  0.00000000E+00
  0.00000000E+00  0.00000000E+00  0.00000000E+00
  0.00000000E+00  0.00000000E+00  0.00000000E+00
  0.00000000E+00  0.00000000E+00  0.00000000E+00
  0.00000000E+00  0.00000000E+00  0.00000000E+00
  0.00000000E+00  0.00000000E+00  0.00000000E+00
  0.00000000E+00  0.00000000E+00  0.00000000E+00
  0.00000000E+00  0.00000000E+00  0.00000000E+00
  0.00000000E+00  0.00000000E+00  0.00000000E+00
  0.00000000E+00  0.00000000E+00  0.00000000E+00
  0.00000000E+00  0.00000000E+00  0.00000000E+00
  0.00000000E+00  0.00000000E+00  0.00000000E+00
  0.00000000E+00  0.00000000E+00  0.00000000E+00
  0.00000000E+00  0.00000000E+00  0.00000000E+00
  0.00000000E+00  0.00000000E+00  0.00000000E+00
  0.00000000E+00  0.00000000E+00  0.00000000E+00
  0.00000000E+00  0.00000000E+00  0.00000000E+00
  0.00000000E+00  0.00000000E+00  0.00000000E+00
  0.00000000E+00  0.00000000E+00  0.00000000E+00
  0.00000000E+00  0.00000000E+00  0.00000000E+00
  0.00000000E+00  0.00000000E+00  0.00000000E+00
  0.00000000E+00  0.00000000E+00  0.00000000E+00
  0.00000000E+00  0.00000000E+00  0.00000000E+00
  0.00000000E+00  0.00000000E+00  0.00000000E+00
  0.00000000E+00  0.00000000E+00  0.00000000E+00
