 C                                      
    1.000000000000000     
    28.0500000000000007    0.0000000000000000    0.0000000000000000
     0.0000000000000000    8.0999999999999996    0.0000000000000000
     0.0000000000000000    0.0000000000000000   33.5000000000000000
   C 
    92
Direct
     0.0157445276292307    0.0987949382716025    0.4736388059701468
     0.0116214260249521    0.2647506172839513    0.4830656716417892
     0.0562634581105144    0.0180397530864198    0.4896865671641777
     0.0491950089126547    0.3515111111111082    0.5016895522388083
     0.0985522281639959    0.1076509876543241    0.5051223880597036
     0.0935682709447434    0.2717086419753088    0.5096477611940315
     0.1388171122994635    0.0236683950617262    0.5197044776119384
     0.1347693404634569    0.3543246913580234    0.5241850746268639
     0.1802766488413567    0.1060188888888902    0.5336208955223896
     0.1793390374331523    0.2749160493827176    0.5320567164179124
     0.2226969696969689    0.0209819753086435    0.5454208955223905
     0.2217401069518701    0.3555259259259245    0.5448119402985085
     0.2669183600713012    0.1032285185185202    0.5518238805970128
     0.2654959001782515    0.2725358024691360    0.5496179104477577
     0.3112003565062409    0.0183023456790110    0.5504865671641781
     0.3110941176470590    0.3569938271604940    0.5515522388059679
     0.3537326203208551    0.1067964197530884    0.5395134328358182
     0.3542417112299461    0.2747604938271593    0.5404955223880563
     0.3970695187165774    0.0257576543209908    0.5330537313432870
     0.3963172905525880    0.3577567901234602    0.5361253731343254
     0.4357754010695203    0.1104493827160482    0.5148119402985074
     0.4380463458110526    0.2771197530864171    0.5206328358208978
     0.4783279857397531    0.0297885185185152    0.5054835820895534
     0.4820392156862781    0.3545345679012328    0.5170537313432817
     0.5209518716577506    0.1072104938271607    0.4929761194029822
     0.5217147950089114    0.2797777777777810    0.4972238805970122
     0.5630730837789670    0.0263753086419740    0.4808686567164173
     0.5682388591800347    0.3514024691358060    0.4901104477611966
     0.6095044563279828    0.1083537037037061    0.4690059701492544
     0.6099358288770063    0.2768703703703679    0.4741970149253731
     0.6506666666666661    0.0235672839506194    0.4611343283582059
     0.6535436720142584    0.3591592592592576    0.4700626865671609
     0.6947593582887706    0.1081349382716041    0.4528626865671654
     0.6966024955436723    0.2732456790123479    0.4586358208955232
     0.7396969696969720    0.0207606172839476    0.4485552238805965
     0.7413083778966154    0.3615802469135829    0.4571761194029875
     0.7836256684491971    0.1077339506172805    0.4467373134328341
     0.7838823529411769    0.2756629629629614    0.4520865671641801
     0.8288092691622069    0.0263134567901204    0.4483671641791034
     0.8281711229946538    0.3564740740740717    0.4602597014925394
     0.8736969696969723    0.1022304938271574    0.4549313432835831
     0.8713547237076682    0.2698703703703700    0.4634179104477596
     0.9190124777183613    0.0182218518518553    0.4576477611940319
     0.9170552584670233    0.3494222222222234    0.4728328358208955
     0.9636684491978613    0.0946783950617274    0.4683820895522359
     0.9600606060606083    0.2607864197530887    0.4758626865671616
     0.0051540819964373    0.5913271604938259    0.4945343283582062
     0.0078275222816373    0.7662567901234567    0.4886477611940307
     0.0487251336898424    0.5179246913580258    0.5065492537313432
     0.0505568627450970    0.8450876543209844    0.4981552238805946
     0.0888670231729023    0.5994567901234547    0.5232567164179116
     0.0911040998217487    0.7686716049382696    0.5178417910447735
     0.1335051693404665    0.5133432098765454    0.5342597014925374
     0.1349686274509807    0.8544617283950586    0.5252686567164204
     0.1748937611408223    0.6017320987654315    0.5470985074626853
     0.1753896613190733    0.7746172839506187    0.5418865671641768
     0.2203978609625636    0.5235864197530873    0.5532417910447762
     0.2198452762923324    0.8572654320987638    0.5485910447761171
     0.2654677361853857    0.6026790123456820    0.5577522388059677
     0.2636602495543698    0.7686234567901238    0.5553552238805963
     0.3109155080213881    0.5215493827160529    0.5611671641791034
     0.3096834224598908    0.8493358024691346    0.5547343283582080
     0.3563718360071277    0.6083469135802488    0.5559522388059719
     0.3549950089126526    0.7756370370370362    0.5515283582089552
     0.3996969696969686    0.5191604938271581    0.5452716417910466
     0.3983565062388621    0.8557172839506180    0.5385134328358205
     0.4456363636363605    0.6030604938271580    0.5345701492537316
     0.4413333333333327    0.7686851851851841    0.5288477611940294
     0.4856363636363668    0.5246641975308677    0.5222447761194005
     0.4814153297682680    0.8562370370370402    0.5117253731343254
     0.5293761140819981    0.6061753086419728    0.5123970149253765
     0.5249696969696984    0.7770185185185170    0.5031552238805972
     0.5697040998217489    0.5204790123456817    0.4987522388059702
     0.5640570409982146    0.8609938271604918    0.4867641791044761
     0.6110659536541903    0.6061728395061721    0.4892298507462698
     0.6081283422459904    0.7744432098765444    0.4805462686567168
     0.6567450980392167    0.5186185185185153    0.4804447761194055
     0.6500213903743344    0.8528938271604929    0.4670417910447782
     0.6992228163992849    0.6109308641975275    0.4703850746268685
     0.6946951871657774    0.7757148148148119    0.4649552238805938
     0.7412513368983937    0.5281283950617279    0.4620656716417884
     0.7374581105169327    0.8585111111111132    0.4524208955223870
     0.7847700534759383    0.6091617283950654    0.4547253731343304
     0.7824991087344060    0.7762444444444441    0.4495850746268673
     0.8285811051693415    0.5235975308641940    0.4562388059701519
     0.8298538324420690    0.8544308641975320    0.4468537313432819
     0.8731122994652409    0.6048666666666662    0.4612656716417902
     0.8738467023172873    0.7693728395061754    0.4555283582089587
     0.9149269162210345    0.5181962962962956    0.4719343283582091
     0.9190552584670257    0.8501061728395030    0.4601791044776107
     0.9572156862745089    0.5993469135802485    0.4809343283582095
     0.9606381461675610    0.7645419753086387    0.4708029850746271
 
  0.00000000E+00  0.00000000E+00  0.00000000E+00
  0.00000000E+00  0.00000000E+00  0.00000000E+00
  0.00000000E+00  0.00000000E+00  0.00000000E+00
  0.00000000E+00  0.00000000E+00  0.00000000E+00
  0.00000000E+00  0.00000000E+00  0.00000000E+00
  0.00000000E+00  0.00000000E+00  0.00000000E+00
  0.00000000E+00  0.00000000E+00  0.00000000E+00
  0.00000000E+00  0.00000000E+00  0.00000000E+00
  0.00000000E+00  0.00000000E+00  0.00000000E+00
  0.00000000E+00  0.00000000E+00  0.00000000E+00
  0.00000000E+00  0.00000000E+00  0.00000000E+00
  0.00000000E+00  0.00000000E+00  0.00000000E+00
  0.00000000E+00  0.00000000E+00  0.00000000E+00
  0.00000000E+00  0.00000000E+00  0.00000000E+00
  0.00000000E+00  0.00000000E+00  0.00000000E+00
  0.00000000E+00  0.00000000E+00  0.00000000E+00
  0.00000000E+00  0.00000000E+00  0.00000000E+00
  0.00000000E+00  0.00000000E+00  0.00000000E+00
  0.00000000E+00  0.00000000E+00  0.00000000E+00
  0.00000000E+00  0.00000000E+00  0.00000000E+00
  0.00000000E+00  0.00000000E+00  0.00000000E+00
  0.00000000E+00  0.00000000E+00  0.00000000E+00
  0.00000000E+00  0.00000000E+00  0.00000000E+00
  0.00000000E+00  0.00000000E+00  0.00000000E+00
  0.00000000E+00  0.00000000E+00  0.00000000E+00
  0.00000000E+00  0.00000000E+00  0.00000000E+00
  0.00000000E+00  0.00000000E+00  0.00000000E+00
  0.00000000E+00  0.00000000E+00  0.00000000E+00
  0.00000000E+00  0.00000000E+00  0.00000000E+00
  0.00000000E+00  0.00000000E+00  0.00000000E+00
  0.00000000E+00  0.00000000E+00  0.00000000E+00
  0.00000000E+00  0.00000000E+00  0.00000000E+00
  0.00000000E+00  0.00000000E+00  0.00000000E+00
  0.00000000E+00  0.00000000E+00  0.00000000E+00
  0.00000000E+00  0.00000000E+00  0.00000000E+00
  0.00000000E+00  0.00000000E+00  0.00000000E+00
  0.00000000E+00  0.00000000E+00  0.00000000E+00
  0.00000000E+00  0.00000000E+00  0.00000000E+00
  0.00000000E+00  0.00000000E+00  0.00000000E+00
  0.00000000E+00  0.00000000E+00  0.00000000E+00
  0.00000000E+00  0.00000000E+00  0.00000000E+00
  0.00000000E+00  0.00000000E+00  0.00000000E+00
  0.00000000E+00  0.00000000E+00  0.00000000E+00
  0.00000000E+00  0.00000000E+00  0.00000000E+00
  0.00000000E+00  0.00000000E+00  0.00000000E+00
  0.00000000E+00  0.00000000E+00  0.00000000E+00
  0.00000000E+00  0.00000000E+00  0.00000000E+00
  0.00000000E+00  0.00000000E+00  0.00000000E+00
  0.00000000E+00  0.00000000E+00  0.00000000E+00
  0.00000000E+00  0.00000000E+00  0.00000000E+00
  0.00000000E+00  0.00000000E+00  0.00000000E+00
  0.00000000E+00  0.00000000E+00  0.00000000E+00
  0.00000000E+00  0.00000000E+00  0.00000000E+00
  0.00000000E+00  0.00000000E+00  0.00000000E+00
  0.00000000E+00  0.00000000E+00  0.00000000E+00
  0.00000000E+00  0.00000000E+00  0.00000000E+00
  0.00000000E+00  0.00000000E+00  0.00000000E+00
  0.00000000E+00  0.00000000E+00  0.00000000E+00
  0.00000000E+00  0.00000000E+00  0.00000000E+00
  0.00000000E+00  0.00000000E+00  0.00000000E+00
  0.00000000E+00  0.00000000E+00  0.00000000E+00
  0.00000000E+00  0.00000000E+00  0.00000000E+00
  0.00000000E+00  0.00000000E+00  0.00000000E+00
  0.00000000E+00  0.00000000E+00  0.00000000E+00
  0.00000000E+00  0.00000000E+00  0.00000000E+00
  0.00000000E+00  0.00000000E+00  0.00000000E+00
  0.00000000E+00  0.00000000E+00  0.00000000E+00
  0.00000000E+00  0.00000000E+00  0.00000000E+00
  0.00000000E+00  0.00000000E+00  0.00000000E+00
  0.00000000E+00  0.00000000E+00  0.00000000E+00
  0.00000000E+00  0.00000000E+00  0.00000000E+00
  0.00000000E+00  0.00000000E+00  0.00000000E+00
  0.00000000E+00  0.00000000E+00  0.00000000E+00
  0.00000000E+00  0.00000000E+00  0.00000000E+00
  0.00000000E+00  0.00000000E+00  0.00000000E+00
  0.00000000E+00  0.00000000E+00  0.00000000E+00
  0.00000000E+00  0.00000000E+00  0.00000000E+00
  0.00000000E+00  0.00000000E+00  0.00000000E+00
  0.00000000E+00  0.00000000E+00  0.00000000E+00
  0.00000000E+00  0.00000000E+00  0.00000000E+00
  0.00000000E+00  0.00000000E+00  0.00000000E+00
  0.00000000E+00  0.00000000E+00  0.00000000E+00
  0.00000000E+00  0.00000000E+00  0.00000000E+00
  0.00000000E+00  0.00000000E+00  0.00000000E+00
  0.00000000E+00  0.00000000E+00  0.00000000E+00
  0.00000000E+00  0.00000000E+00  0.00000000E+00
  0.00000000E+00  0.00000000E+00  0.00000000E+00
  0.00000000E+00  0.00000000E+00  0.00000000E+00
  0.00000000E+00  0.00000000E+00  0.00000000E+00
  0.00000000E+00  0.00000000E+00  0.00000000E+00
  0.00000000E+00  0.00000000E+00  0.00000000E+00
  0.00000000E+00  0.00000000E+00  0.00000000E+00
