 C 
 1.0000000000000000
    28.0500000000000007    0.0000000000000000    0.0000000000000000
     0.0000000000000000    8.0999999999999996    0.0000000000000000
     0.0000000000000000    0.0000000000000000   33.5000000000000000
 C  
  92
Cartesian
  0.4416340000000000  0.8002390000000000 15.8668999999999993
  0.3259810000000000  2.1444800000000002 16.1827000000000005
  1.5781900000000000  0.1461220000000000 16.4044999999999987
  1.3799200000000000  2.8472400000000002 16.8065999999999995
  2.7643900000000001  0.8719730000000000 16.9216000000000015
  2.6245900000000000  2.2008399999999999 17.0731999999999999
  3.8938199999999998  0.1917140000000000 17.4100999999999999
  3.7802799999999999  2.8700299999999999 17.5601999999999983
  5.0567599999999997  0.8587530000000000 17.8763000000000005
  5.0304599999999997  2.2268200000000000 17.8238999999999983
  6.2466499999999998  0.1699540000000000 18.2715999999999994
  6.2198099999999998  2.8797600000000001 18.2512000000000008
  7.4870599999999996  0.8361510000000000 18.4861000000000004
  7.4471600000000002  2.2075399999999998 18.4121999999999986
  8.7291699999999999  0.1482490000000000 18.4412999999999982
  8.7261900000000008  2.8916499999999998 18.4770000000000003
  9.9222000000000001  0.8650510000000000 18.0736999999999988
  9.9364799999999995  2.2255600000000002 18.1066000000000003
 11.1378000000000004  0.2086370000000000 17.8572999999999986
 11.1166999999999998  2.8978299999999999 17.9602000000000004
 12.2234999999999996  0.8946400000000000 17.2462000000000018
 12.2872000000000003  2.2446700000000002 17.4411999999999985
 13.4170999999999996  0.2412870000000000 16.9337000000000018
 13.5212000000000003  2.8717299999999999 17.3213000000000008
 14.6127000000000002  0.8684050000000000 16.5147000000000013
 14.6341000000000001  2.2662000000000000 16.6570000000000000
 15.7942000000000000  0.2136400000000000 16.1091000000000015
 15.9390999999999998  2.8463599999999998 16.4187000000000012
 17.0965999999999987  0.8776650000000000 15.7117000000000004
 17.1086999999999989  2.2426499999999998 15.8856000000000002
 18.2512000000000008  0.1908950000000000 15.4480000000000004
 18.3319000000000010  2.9091900000000002 15.7470999999999997
 19.4879999999999995  0.8758930000000000 15.1708999999999996
 19.5396999999999998  2.2132900000000002 15.3643000000000001
 20.7484999999999999  0.1681610000000000 15.0266000000000002
 20.7937000000000012  2.9287999999999998 15.3154000000000003
 21.9806999999999988  0.8726450000000000 14.9657000000000000
 21.9878999999999998  2.2328700000000001 15.1448999999999998
 23.2481000000000009  0.2131390000000000 15.0203000000000007
 23.2302000000000000  2.8874399999999998 15.4186999999999994
 24.5072000000000010  0.8280670000000000 15.2401999999999997
 24.4415000000000013  2.1859500000000001 15.5244999999999997
 25.7783000000000015  0.1475970000000000 15.3312000000000008
 25.7234000000000016  2.8303199999999999 15.8399000000000001
 27.0308999999999990  0.7668950000000000 15.6907999999999994
 26.9297000000000004  2.1123699999999999 15.9413999999999998
  0.1445720000000000  4.7897499999999997 16.5669000000000004
  0.2195620000000000  6.2066800000000004 16.3697000000000017
  1.3667400000000001  4.1951900000000002 16.9694000000000003
  1.4181200000000000  6.8452099999999998 16.6881999999999984
  2.4927199999999998  4.8555999999999999 17.5290999999999997
  2.5554700000000001  6.2262399999999998 17.3476999999999997
  3.7448199999999998  4.1580800000000000 17.8977000000000004
  3.7858700000000001  6.9211400000000003 17.5964999999999989
  4.9057700000000004  4.8740300000000003 18.3277999999999999
  4.9196799999999996  6.2744000000000000 18.1531999999999982
  6.1821599999999997  4.2410500000000004 18.5335999999999999
  6.1666600000000003  6.9438500000000003 18.3778000000000006
  7.4463699999999999  4.8817000000000004 18.6846999999999994
  7.3956700000000000  6.2258500000000003 18.6043999999999983
  8.7211800000000004  4.2245499999999998 18.7990999999999993
  8.6866199999999996  6.8796200000000001 18.5836000000000006
  9.9962300000000006  4.9276099999999996 18.6244000000000014
  9.9576100000000007  6.2826599999999999 18.4761999999999986
 11.2114999999999991  4.2051999999999996 18.2666000000000004
 11.1738999999999997  6.9313099999999999 18.0401999999999987
 12.5000999999999998  4.8847899999999997 17.9081000000000010
 12.3794000000000004  6.2263500000000001 17.7164000000000001
 13.6220999999999997  4.2497800000000003 17.4952000000000005
 13.5037000000000003  6.9355200000000004 17.1428000000000011
 14.8490000000000002  4.9100200000000003 17.1652999999999984
 14.7254000000000005  6.2938499999999999 16.8556999999999988
 15.9802000000000000  4.2158800000000003 16.7082000000000015
 15.8217999999999996  6.9740500000000001 16.3065999999999995
 17.1403999999999996  4.9100000000000001 16.3891999999999989
 17.0579999999999998  6.2729900000000001 16.0982999999999983
 18.4217000000000013  4.2008099999999997 16.0948999999999991
 18.2331000000000003  6.9084399999999997 15.6458999999999993
 19.6131999999999991  4.9485400000000004 15.7578999999999994
 19.4862000000000002  6.2832900000000000 15.5760000000000005
 20.7921000000000014  4.2778400000000003 15.4792000000000005
 20.6857000000000006  6.9539400000000002 15.1561000000000003
 22.0127999999999986  4.9342100000000002 15.2332999999999998
 21.9491000000000014  6.2875800000000002 15.0610999999999997
 23.2417000000000016  4.2411399999999997 15.2840000000000007
 23.2774000000000001  6.9208900000000000 14.9695999999999998
 24.4908000000000001  4.8994200000000001 15.4524000000000008
 24.5113999999999983  6.2319199999999997 15.2601999999999993
 25.6636999999999986  4.1973900000000004 15.8097999999999992
 25.7794999999999987  6.8858600000000001 15.4160000000000004
 26.8499000000000017  4.8547099999999999 16.1113000000000000
 26.9459000000000017  6.1927899999999996 15.7719000000000005
