 C 
 1.0000000000000000
    28.0500000000000007    0.0000000000000000    0.0000000000000000
     0.0000000000000000    8.0999999999999996    0.0000000000000000
     0.0000000000000000    0.0000000000000000   33.5000000000000000
 C  
  92
Cartesian
  0.1873830000000000  0.8008920000000000 18.1535000000000011
  0.1669030000000000  2.1678600000000001 17.8994999999999997
  1.4331499999999999  0.2318030000000000 18.2408999999999999
  1.3699900000000000  2.8694199999999999 17.8124000000000002
  2.6414300000000002  0.8515460000000000 18.0788000000000011
  2.6491699999999998  2.1699400000000000 17.9387000000000008
  3.9315500000000001  0.1235000000000000 18.0259999999999998
  3.8358099999999999  2.8918200000000001 17.7088999999999999
  5.1440400000000004  0.8317360000000000 17.7776999999999994
  5.0748600000000001  2.2113200000000002 17.5520999999999994
  6.3839300000000003  0.2141810000000000 17.7116000000000007
  6.2309200000000002  2.8827199999999999 17.2151999999999994
  7.5411299999999999  0.9363010000000000 17.2465000000000011
  7.4356600000000004  2.2126899999999998 16.8479999999999990
  8.7598500000000001  0.1587350000000000 16.8725999999999985
  8.6617200000000008  2.8538100000000002 16.3521000000000001
  9.8744999999999994  0.8136900000000000 16.2872999999999983
  9.8539399999999997  2.1634400000000000 16.0247999999999990
 11.0969999999999995  0.2028310000000000 16.0067999999999984
 11.0320999999999998  2.8517199999999998 15.6170000000000009
 12.2590000000000003  0.9015540000000000 15.5648999999999997
 12.2337000000000007  2.2149100000000002 15.3653999999999993
 13.5068000000000001  0.2349930000000000 15.2575000000000003
 13.4814000000000007  2.8868900000000002 15.1373999999999995
 14.7627000000000006  0.8942310000000000 15.0919000000000008
 14.8001000000000005  2.2070699999999999 15.1354000000000006
 16.0478999999999985  0.1859270000000000 15.1534999999999993
 16.0060000000000002  2.8949199999999999 15.0181000000000004
 17.2162000000000006  0.8382500000000001 15.4552999999999994
 17.2533999999999992  2.2060000000000000 15.3346000000000000
 18.4220000000000006  0.1503570000000000 15.8531999999999993
 18.4720000000000013  2.8501799999999999 15.6600000000000001
 19.6112000000000002  0.7931080000000000 16.1509999999999998
 19.6275000000000013  2.1163699999999999 16.0648000000000017
 20.7419000000000011  0.1695310000000000 16.6889000000000003
 20.7780999999999985  2.8526699999999998 16.4552000000000014
 21.9643000000000015  0.8186090000000000 16.9485999999999990
 21.9861000000000004  2.1959599999999999 16.7346000000000004
 23.1297999999999995  0.1997780000000000 17.4859000000000009
 23.2279000000000018  2.8471600000000001 16.9830000000000005
 24.3449999999999989  0.8432170000000000 17.6029000000000018
 24.4677000000000007  2.1844199999999998 17.2839999999999989
 25.5742000000000012  0.1911700000000000 17.9384000000000015
 25.6476000000000006  2.8475500000000000 17.5796999999999990
 26.7648000000000010  0.8113660000000000 17.9098000000000006
 26.8375999999999983  2.1751399999999999 17.7062999999999988
  0.2044290000000000  4.8789600000000002 18.2094999999999985
  0.1810180000000000  6.2926200000000003 18.3288000000000011
  1.3524400000000001  4.2341300000000004 17.9012999999999991
  1.4157700000000000  6.9601199999999999 18.3337000000000003
  2.6610200000000002  4.9202599999999999 17.8746000000000009
  2.6602299999999999  6.2116899999999999 18.1768999999999998
  3.8894400000000000  4.2423299999999999 17.6479999999999997
  3.8940899999999998  6.8765900000000002 18.0697000000000010
  5.0811099999999998  4.9430100000000001 17.5135000000000005
  5.1136499999999998  6.2765399999999998 17.7398999999999987
  6.2436299999999996  4.2758200000000004 17.2093999999999987
  6.2900200000000002  6.9804700000000004 17.5692999999999984
  7.4592400000000003  4.9330999999999996 16.8814999999999991
  7.5232500000000000  6.2595200000000002 17.1478000000000002
  8.6330399999999994  4.2132199999999997 16.4250000000000007
  8.7378900000000002  6.9072500000000003 16.9344000000000001
  9.8477800000000002  4.8523399999999999 16.1385000000000005
  9.9416100000000007  6.2044100000000002 16.4744999999999990
 11.0050000000000008  4.2268200000000000 15.6526999999999994
 11.0936000000000003  6.9300400000000000 16.0933999999999990
 12.2065000000000001  4.9112900000000002 15.3785000000000007
 12.2217000000000002  6.2906700000000004 15.5893999999999995
 13.4635999999999996  4.2414100000000001 15.0010999999999992
 13.4530999999999992  6.9852600000000002 15.2722999999999995
 14.7899999999999991  4.9633399999999996 15.0396999999999998
 14.7467000000000006  6.2972400000000004 15.1789000000000005
 16.0252000000000017  4.2586599999999999 15.0053000000000001
 16.0217999999999989  6.9471400000000001 15.1395000000000000
 17.2519999999999989  4.8960600000000003 15.2490000000000006
 17.2545000000000002  6.2801200000000001 15.3834000000000000
 18.4858000000000011  4.2175599999999998 15.6272000000000002
 18.4009999999999998  6.9224100000000002 15.8237000000000005
 19.6598000000000006  4.8858400000000000 16.0581999999999994
 19.6158999999999999  6.2563500000000003 16.2174000000000014
 20.8231999999999999  4.2163300000000001 16.4205000000000005
 20.7466000000000008  6.9118300000000001 16.7256999999999998
 21.9923999999999999  4.8826700000000001 16.9531999999999989
 21.9220000000000006  6.2101400000000000 17.1221999999999994
 23.2025000000000006  4.2367699999999999 17.1203000000000003
 23.0466000000000015  6.9070600000000004 17.5921999999999983
 24.3413000000000004  4.8896400000000000 17.6621999999999986
 24.3421999999999983  6.2639699999999996 17.8617999999999988
 25.6270999999999987  4.2016700000000000 17.7247999999999983
 25.5730000000000004  6.9201699999999997 18.0770000000000017
 26.8134000000000015  4.8212200000000003 18.1872000000000007
 26.7871999999999986  6.2146499999999998 18.3366000000000007
