 C                                      
    1.000000000000000     
    28.0500000000000007    0.0000000000000000    0.0000000000000000
     0.0000000000000000    8.0999999999999996    0.0000000000000000
     0.0000000000000000    0.0000000000000000   33.5000000000000000
   C 
    92
Direct
     0.0011869447415336    0.1080472839506186    0.4638955223880572
     0.0041785739750466    0.2768333333333359    0.4610417910447779
     0.0452980392156874    0.0271179012345684    0.4626000000000019
     0.0480395721925149    0.3568975308641953    0.4609761194029858
     0.0924135472370793    0.1043022222222234    0.4548029850746289
     0.0928755793226372    0.2740827160493851    0.4545611940298500
     0.1371098039215681    0.0235255555555582    0.4541014925373119
     0.1366338680926944    0.3597617283950640    0.4519492537313425
     0.1814745098039197    0.1054866666666641    0.4511850746268635
     0.1822099821746903    0.2739037037037022    0.4479432835820916
     0.2227180035650633    0.0178161728395096    0.4605432835820906
     0.2240474153297711    0.3535962962962955    0.4549074626865703
     0.2685265597147932    0.0965098765432089    0.4659044776119430
     0.2681750445632787    0.2603222222222215    0.4604925373134350
     0.3132345811051707    0.0183496296296326    0.4682328358208920
     0.3105736185383279    0.3456740740740756    0.4737611940298478
     0.3565098039215684    0.0968651851851874    0.4785104477611952
     0.3539761140819948    0.2659567901234539    0.4839820895522422
     0.3994581105169317    0.0152117283950588    0.4903641791044748
     0.3944278074866290    0.3459716049382706    0.5008328358208942
     0.4416078431372554    0.0999027160493853    0.5011940298507440
     0.4390909090909076    0.2711185185185201    0.5091253731343315
     0.4805989304812854    0.0207493827160476    0.5186208955223890
     0.4799536541889466    0.3501061728395030    0.5235044776119437
     0.5243992869875242    0.1018895061728387    0.5264626865671644
     0.5245632798573965    0.2658913580246889    0.5272208955223903
     0.5675864527629244    0.0256564197530835    0.5318149253731335
     0.5671657754010724    0.3582222222222242    0.5361462686567151
     0.6117540106951864    0.1066471604938286    0.5383880597014894
     0.6112834224598913    0.2729098765432099    0.5422388059701504
     0.6574188948306627    0.0206183950617316    0.5389761194029816
     0.6551942959001806    0.3612345679012350    0.5445074626865676
     0.7008805704099856    0.1089735802469107    0.5402417910447781
     0.7007308377896635    0.2787679012345663    0.5391582089552216
     0.7458894830659517    0.0266946913580242    0.5394328358208966
     0.7455115864527642    0.3611172839506196    0.5358865671641766
     0.7863030303030314    0.1083004938271586    0.5280507462686543
     0.7890695187165804    0.2806790123456793    0.5264895522388073
     0.8315935828876988    0.0224476543209846    0.5203223880597037
     0.8275508021390365    0.3626740740740715    0.5077074626865681
     0.8711586452762958    0.1099155555555527    0.5052686567164173
     0.8699928698752259    0.2767975308642008    0.4974328358208950
     0.9134153297682701    0.0263927160493793    0.4974686567164213
     0.9133083778966125    0.3614617283950636    0.4901432835820927
     0.9507593582887708    0.1095603703703674    0.4801313432835812
     0.9527486631016018    0.2779135802469170    0.4754895522388054
     0.0062052406417124    0.6011777777777780    0.4749134328358195
     0.0069001069518748    0.7734629629629666    0.4772686567164186
     0.0496228163992853    0.5201530864197537    0.4695820895522402
     0.0471928698752251    0.8554432098765403    0.4644835820895494
     0.0916235294117627    0.6064604938271572    0.4638179104477587
     0.0919946524064201    0.7727148148148117    0.4598238805970141
     0.1379540106951893    0.5236641975308629    0.4609761194029858
     0.1355611408199664    0.8531962962962965    0.4564119402985085
     0.1805155080213936    0.6069962962962947    0.4601044776119423
     0.1795254901960774    0.7729123456790106    0.4630776119402995
     0.2239942959001766    0.5162901234567912    0.4611701492537321
     0.2207739750445654    0.8570432098765437    0.4679074626865685
     0.2661397504456318    0.5988037037037017    0.4700507462686545
     0.2666299465240627    0.7661222222222221    0.4716179104477618
     0.3094399286987510    0.5167567901234591    0.4787194029850781
     0.3104748663101589    0.8492506172839498    0.4744686567164180
     0.3509725490196089    0.5942222222222213    0.4948119402985043
     0.3503565062388603    0.7665790123456802    0.4880805970149282
     0.3913725490196072    0.5135950617283953    0.5070686567164202
     0.3962852049910879    0.8450407407407425    0.4980507462686532
     0.4329055258466994    0.5965382716049419    0.5200985074626843
     0.4354260249554400    0.7632098765432076    0.5156029850746293
     0.4777789661319076    0.5134246913580256    0.5287164179104451
     0.4785525846702328    0.8486728395061718    0.5237044776119433
     0.5216114081996466    0.6027604938271622    0.5362925373134360
     0.5238716577540075    0.7729691358024695    0.5336686567164151
     0.5662745098039181    0.5219555555555573    0.5399761194029864
     0.5678966131907330    0.8574543209876566    0.5359820895522418
     0.6105882352941165    0.6036098765432101    0.5457313432835846
     0.6125383244206759    0.7703654320987638    0.5382119402985097
     0.6551229946524089    0.5261938271604905    0.5477074626865672
     0.6573832442067769    0.8485777777777770    0.5401791044776090
     0.7000534759358317    0.6059370370370374    0.5462029850746291
     0.7029411764705884    0.7766283950617279    0.5461014925373107
     0.7432798573975035    0.5278913580246893    0.5370746268656745
     0.7461247771836028    0.8543592592592617    0.5431253731343304
     0.7883529411764698    0.6124098765432109    0.5285194029850757
     0.7908163992869888    0.7740975308641964    0.5380029850746268
     0.8291265597147941    0.5301160493827126    0.5128417910447780
     0.8340035650623889    0.8634049382716071    0.5289223880597049
     0.8722887700534727    0.6143456790123452    0.5085910447761179
     0.8768306595365445    0.7803074074074061    0.5168537313432822
     0.9135579322638137    0.5263049382716076    0.4972626865671614
     0.9182139037433146    0.8626012345679044    0.5043701492537309
     0.9575721925133678    0.6027790123456782    0.4902179104477611
     0.9587878787878807    0.7752641975308663    0.4936626865671627
 
  0.00000000E+00  0.00000000E+00  0.00000000E+00
  0.00000000E+00  0.00000000E+00  0.00000000E+00
  0.00000000E+00  0.00000000E+00  0.00000000E+00
  0.00000000E+00  0.00000000E+00  0.00000000E+00
  0.00000000E+00  0.00000000E+00  0.00000000E+00
  0.00000000E+00  0.00000000E+00  0.00000000E+00
  0.00000000E+00  0.00000000E+00  0.00000000E+00
  0.00000000E+00  0.00000000E+00  0.00000000E+00
  0.00000000E+00  0.00000000E+00  0.00000000E+00
  0.00000000E+00  0.00000000E+00  0.00000000E+00
  0.00000000E+00  0.00000000E+00  0.00000000E+00
  0.00000000E+00  0.00000000E+00  0.00000000E+00
  0.00000000E+00  0.00000000E+00  0.00000000E+00
  0.00000000E+00  0.00000000E+00  0.00000000E+00
  0.00000000E+00  0.00000000E+00  0.00000000E+00
  0.00000000E+00  0.00000000E+00  0.00000000E+00
  0.00000000E+00  0.00000000E+00  0.00000000E+00
  0.00000000E+00  0.00000000E+00  0.00000000E+00
  0.00000000E+00  0.00000000E+00  0.00000000E+00
  0.00000000E+00  0.00000000E+00  0.00000000E+00
  0.00000000E+00  0.00000000E+00  0.00000000E+00
  0.00000000E+00  0.00000000E+00  0.00000000E+00
  0.00000000E+00  0.00000000E+00  0.00000000E+00
  0.00000000E+00  0.00000000E+00  0.00000000E+00
  0.00000000E+00  0.00000000E+00  0.00000000E+00
  0.00000000E+00  0.00000000E+00  0.00000000E+00
  0.00000000E+00  0.00000000E+00  0.00000000E+00
  0.00000000E+00  0.00000000E+00  0.00000000E+00
  0.00000000E+00  0.00000000E+00  0.00000000E+00
  0.00000000E+00  0.00000000E+00  0.00000000E+00
  0.00000000E+00  0.00000000E+00  0.00000000E+00
  0.00000000E+00  0.00000000E+00  0.00000000E+00
  0.00000000E+00  0.00000000E+00  0.00000000E+00
  0.00000000E+00  0.00000000E+00  0.00000000E+00
  0.00000000E+00  0.00000000E+00  0.00000000E+00
  0.00000000E+00  0.00000000E+00  0.00000000E+00
  0.00000000E+00  0.00000000E+00  0.00000000E+00
  0.00000000E+00  0.00000000E+00  0.00000000E+00
  0.00000000E+00  0.00000000E+00  0.00000000E+00
  0.00000000E+00  0.00000000E+00  0.00000000E+00
  0.00000000E+00  0.00000000E+00  0.00000000E+00
  0.00000000E+00  0.00000000E+00  0.00000000E+00
  0.00000000E+00  0.00000000E+00  0.00000000E+00
  0.00000000E+00  0.00000000E+00  0.00000000E+00
  0.00000000E+00  0.00000000E+00  0.00000000E+00
  0.00000000E+00  0.00000000E+00  0.00000000E+00
  0.00000000E+00  0.00000000E+00  0.00000000E+00
  0.00000000E+00  0.00000000E+00  0.00000000E+00
  0.00000000E+00  0.00000000E+00  0.00000000E+00
  0.00000000E+00  0.00000000E+00  0.00000000E+00
  0.00000000E+00  0.00000000E+00  0.00000000E+00
  0.00000000E+00  0.00000000E+00  0.00000000E+00
  0.00000000E+00  0.00000000E+00  0.00000000E+00
  0.00000000E+00  0.00000000E+00  0.00000000E+00
  0.00000000E+00  0.00000000E+00  0.00000000E+00
  0.00000000E+00  0.00000000E+00  0.00000000E+00
  0.00000000E+00  0.00000000E+00  0.00000000E+00
  0.00000000E+00  0.00000000E+00  0.00000000E+00
  0.00000000E+00  0.00000000E+00  0.00000000E+00
  0.00000000E+00  0.00000000E+00  0.00000000E+00
  0.00000000E+00  0.00000000E+00  0.00000000E+00
  0.00000000E+00  0.00000000E+00  0.00000000E+00
  0.00000000E+00  0.00000000E+00  0.00000000E+00
  0.00000000E+00  0.00000000E+00  0.00000000E+00
  0.00000000E+00  0.00000000E+00  0.00000000E+00
  0.00000000E+00  0.00000000E+00  0.00000000E+00
  0.00000000E+00  0.00000000E+00  0.00000000E+00
  0.00000000E+00  0.00000000E+00  0.00000000E+00
  0.00000000E+00  0.00000000E+00  0.00000000E+00
  0.00000000E+00  0.00000000E+00  0.00000000E+00
  0.00000000E+00  0.00000000E+00  0.00000000E+00
  0.00000000E+00  0.00000000E+00  0.00000000E+00
  0.00000000E+00  0.00000000E+00  0.00000000E+00
  0.00000000E+00  0.00000000E+00  0.00000000E+00
  0.00000000E+00  0.00000000E+00  0.00000000E+00
  0.00000000E+00  0.00000000E+00  0.00000000E+00
  0.00000000E+00  0.00000000E+00  0.00000000E+00
  0.00000000E+00  0.00000000E+00  0.00000000E+00
  0.00000000E+00  0.00000000E+00  0.00000000E+00
  0.00000000E+00  0.00000000E+00  0.00000000E+00
  0.00000000E+00  0.00000000E+00  0.00000000E+00
  0.00000000E+00  0.00000000E+00  0.00000000E+00
  0.00000000E+00  0.00000000E+00  0.00000000E+00
  0.00000000E+00  0.00000000E+00  0.00000000E+00
  0.00000000E+00  0.00000000E+00  0.00000000E+00
  0.00000000E+00  0.00000000E+00  0.00000000E+00
  0.00000000E+00  0.00000000E+00  0.00000000E+00
  0.00000000E+00  0.00000000E+00  0.00000000E+00
  0.00000000E+00  0.00000000E+00  0.00000000E+00
  0.00000000E+00  0.00000000E+00  0.00000000E+00
  0.00000000E+00  0.00000000E+00  0.00000000E+00
  0.00000000E+00  0.00000000E+00  0.00000000E+00
