 C 
 1.0000000000000000
    28.0500000000000007    0.0000000000000000    0.0000000000000000
     0.0000000000000000    8.0999999999999996    0.0000000000000000
     0.0000000000000000    0.0000000000000000   33.5000000000000000
 C  
  92
Cartesian
  0.1806140000000000  0.8606860000000000 17.5966999999999985
  0.1724890000000000  2.2546599999999999 17.6666999999999987
  1.3871400000000000  0.2116180000000000 17.9082000000000008
  1.3342600000000000  2.8967299999999998 17.9502999999999986
  2.6378200000000001  0.8181490000000000 18.0474999999999994
  2.5854800000000000  2.2208500000000000 18.0162000000000013
  3.8657499999999998  0.1530010000000000 18.3278999999999996
  3.7664100000000000  2.9123800000000002 18.0566999999999993
  5.0506599999999997  0.8376050000000000 18.0956000000000010
  4.9885099999999998  2.2118799999999998 17.9161000000000001
  6.3141900000000000  0.1694390000000000 17.8533000000000008
  6.2269300000000003  2.9154900000000001 17.6819999999999986
  7.4917800000000003  0.8283210000000000 17.4436000000000000
  7.4253499999999999  2.2341000000000002 17.4165999999999990
  8.7622300000000006  0.1692670000000000 17.1246000000000009
  8.6747800000000002  2.9161000000000001 16.9531999999999989
  9.9383700000000008  0.8441240000000000 16.7297000000000011
  9.9285399999999999  2.2044199999999998 16.6309000000000005
 11.1440999999999999  0.2068960000000000 16.3835000000000015
 11.1128000000000000  2.8649399999999998 16.2243999999999993
 12.3181999999999992  0.8184190000000000 15.9101999999999997
 12.2935999999999996  2.1753100000000001 15.7529000000000003
 13.5408000000000008  0.1355040000000000 15.7413000000000007
 13.4872999999999994  2.9075700000000002 15.4131999999999998
 14.6643000000000008  0.8609650000000000 15.2492000000000001
 14.6953999999999994  2.2350800000000000 15.0870999999999995
 15.9207999999999998  0.1854800000000000 15.1976999999999993
 15.9347999999999992  2.8850799999999999 14.8690999999999995
 17.1748000000000012  0.8027060000000000 14.9199999999999999
 17.2027999999999999  2.1784100000000000 14.7409999999999997
 18.4573000000000000  0.1863310000000000 15.2201000000000004
 18.3988000000000014  2.8533300000000001 14.8920999999999992
 19.6733000000000011  0.8549340000000000 15.2583000000000002
 19.6966999999999999  2.2085499999999998 15.1026000000000007
 20.8856999999999999  0.1320600000000000 15.6493000000000002
 20.8967999999999989  2.8593500000000001 15.6005000000000003
 22.0460999999999991  0.8052650000000000 15.9161999999999999
 22.0710000000000015  2.1917100000000000 15.9156999999999993
 23.1980000000000004  0.1342100000000000 16.4845000000000006
 23.2366999999999990  2.8388700000000000 16.4705000000000013
 24.4359999999999999  0.8277010000000000 16.7409999999999997
 24.4025999999999996  2.1757100000000000 16.7624999999999993
 25.6073999999999984  0.1185320000000000 17.1657000000000011
 25.6370000000000005  2.8302100000000001 17.1263000000000005
 26.7913999999999994  0.8340760000000000 17.4328000000000003
 26.8415999999999997  2.2188500000000002 17.3776000000000010
  0.1248690000000000  4.9770700000000003 18.0662999999999982
  0.0793243000000000  6.3635700000000002 18.2119999999999997
  1.2912300000000001  4.2983599999999997 18.1169000000000011
  1.3152500000000000  7.0214800000000004 18.3265999999999991
  2.5536500000000002  4.9088700000000003 18.3058000000000014
  2.5248400000000002  6.3052700000000002 18.4250000000000007
  3.7870800000000000  4.2513899999999998 18.2824999999999989
  3.8574000000000002  6.9041699999999997 18.5104000000000006
  5.0895599999999996  4.9131999999999998 18.2234000000000016
  5.0898899999999996  6.2723599999999999 18.4038000000000004
  6.2509499999999996  4.2374900000000002 17.9538000000000011
  6.3910499999999999  6.9306500000000000 18.1579000000000015
  7.5598900000000002  4.8696299999999999 17.8354999999999997
  7.6295099999999998  6.2407399999999997 17.9279000000000011
  8.6913199999999993  4.2554200000000000 17.2565999999999988
  8.8032500000000002  6.9127999999999998 17.4356000000000009
  9.9544999999999995  4.9136899999999999 17.0685000000000002
 10.0320999999999998  6.2718499999999997 17.0349000000000004
 11.1158000000000001  4.1757000000000000 16.5866000000000007
 11.2371999999999996  6.9208100000000004 16.5911000000000008
 12.3455999999999992  4.8679600000000001 16.3095999999999997
 12.3864000000000001  6.2292500000000004 16.2869999999999990
 13.5066000000000006  4.2518799999999999 15.7708999999999993
 13.6129999999999995  6.9494499999999997 16.0568999999999988
 14.7334999999999994  4.8819400000000002 15.5531000000000006
 14.7791999999999994  6.2446599999999997 15.8043999999999993
 15.9138000000000002  4.2497199999999999 15.1577000000000002
 15.9785000000000004  6.9262499999999996 15.4923999999999999
 17.1698999999999984  4.8413700000000004 15.2921999999999993
 17.1180999999999983  6.2080200000000003 15.3103999999999996
 18.3872000000000000  4.1876800000000003 15.2220999999999993
 18.3856000000000002  6.8986599999999996 15.4314000000000000
 19.6082999999999998  4.8396499999999998 15.5364000000000004
 19.5604000000000013  6.2610299999999999 15.8068000000000008
 20.8209000000000017  4.2025899999999998 15.8928999999999991
 20.7944999999999993  6.8983600000000003 16.0334000000000003
 21.9987999999999992  4.8669200000000004 16.4046999999999983
 21.9373000000000005  6.2038200000000003 16.5370999999999988
 23.2185999999999986  4.2142600000000003 16.6373999999999995
 23.1009999999999991  6.9131999999999998 16.8529000000000018
 24.3795999999999999  4.9335800000000001 17.1204000000000001
 24.3026000000000018  6.2695200000000000 17.2745999999999995
 25.6037999999999997  4.2468399999999997 17.2698999999999998
 25.5227000000000004  6.9362199999999996 17.5731000000000002
 26.7616000000000014  4.8917700000000002 17.6930000000000014
 26.7120999999999995  6.2568700000000002 17.9323000000000015
