 C                                      
    1.000000000000000     
    28.0500000000000007    0.0000000000000000    0.0000000000000000
     0.0000000000000000    8.0999999999999996    0.0000000000000000
     0.0000000000000000    0.0000000000000000   33.5000000000000000
   C 
    92
Direct
     0.0561718360071310    0.1719962962962995    0.3686388059701500
     0.0546495543672023    0.3428753086419789    0.3623313432835786
     0.0984541889483097    0.0922883950617290    0.3705223880597046
     0.0974131907308404    0.4215851851851866    0.3671999999999969
     0.1426805704099792    0.1710246913580278    0.3751999999999995
     0.1438431372549047    0.3382839506172814    0.3694417910447783
     0.1851600713012473    0.0904327160493850    0.3876059701492522
     0.1880299465240611    0.4201679012345707    0.3752746268656750
     0.2286274509803903    0.1733024691358054    0.3907701492537328
     0.2311561497326196    0.3366987654320965    0.3822597014925364
     0.2703030303030332    0.0893103703703702    0.4039164179104446
     0.2727229946524048    0.4166358024691377    0.3970388059701477
     0.3141704099821752    0.1687333333333356    0.4100985074626848
     0.3174370766488437    0.3396802469135807    0.4066089552238807
     0.3552096256684507    0.0892474074074059    0.4266567164179094
     0.3585597147950068    0.4245580246913576    0.4219791044776144
     0.3993333333333311    0.1715333333333362    0.4306447761194008
     0.4013368983957193    0.3428086419753100    0.4296626865671627
     0.4417219251336917    0.0945340740740761    0.4457432835820896
     0.4430873440285197    0.4253716049382703    0.4422298507462656
     0.4865383244206782    0.1742370370370381    0.4515283582089538
     0.4867664884135507    0.3411333333333317    0.4547731343283559
     0.5299037433155078    0.0914201234567926    0.4595194029850731
     0.5297575757575785    0.4204777777777764    0.4618388059701459
     0.5737076648841324    0.1710604938271629    0.4606716417910448
     0.5743351158645282    0.3353407407407403    0.4620119402985097
     0.6193725490196087    0.0882434567901242    0.4577194029850773
     0.6199465240641686    0.4146641975308611    0.4633134328358182
     0.6612442067736168    0.1690074074074062    0.4537820895522415
     0.6627843137254885    0.3361234567901263    0.4576149253731359
     0.7043172905525878    0.0749669135802478    0.4470119402985091
     0.7071871657754016    0.4095790123456808    0.4528776119403020
     0.7459393939393948    0.1584012345679042    0.4339522388059720
     0.7477290552584677    0.3285209876543220    0.4365701492537326
     0.7891978609625667    0.0809767901234579    0.4204776119402993
     0.7898538324420699    0.4093617283950621    0.4237074626865649
     0.8300320855614984    0.1622530864197529    0.4057492537313436
     0.8296969696969683    0.3302765432098766    0.4054179104477598
     0.8732014260249557    0.0859595061728413    0.3977164179104449
     0.8727272727272748    0.4173296296296272    0.3945432835820881
     0.9156256684491950    0.1609901234567914    0.3816686567164211
     0.9148377896613198    0.3318049382716026    0.3824895522388090
     0.9601675579322659    0.0830097530864222    0.3777402985074616
     0.9596648841354707    0.4161679012345658    0.3749492537313444
     0.0030176042780781    0.1626395061728374    0.3692985074626876
     0.0018883458110537    0.3371543209876577    0.3657970149253700
     0.0534755793226367    0.6686111111111117    0.3743074626865663
     0.0537219251336865    0.8421024691358028    0.3734447761194062
     0.0969957219251327    0.5844913580246924    0.3748119402985068
     0.0963140819964323    0.9270851851851845    0.3766089552238796
     0.1396573975044575    0.6702444444444424    0.3827791044776134
     0.1389946524064172    0.8434160493827179    0.3873134328358177
     0.1849714795008879    0.5867703703703739    0.3850805970149267
     0.1832959001782513    0.9205814814814843    0.3936029850746294
     0.2286784313725505    0.6716839506172860    0.3950686567164183
     0.2266805704099824    0.8325246913580244    0.4008059701492570
     0.2701379679144367    0.5861876543209874    0.4059164179104471
     0.2699896613190731    0.9201246913580263    0.4093641791044789
     0.3109504456327983    0.6753074074074092    0.4209402985074604
     0.3104998217468804    0.8416827160493838    0.4246447761194005
     0.3561793226381482    0.5885716049382737    0.4299671641791036
     0.3533165775401059    0.9219604938271573    0.4348985074626839
     0.3986809269162208    0.6739172839506153    0.4427641791044792
     0.3985311942958987    0.8410407407407376    0.4459820895522384
     0.4424991087344026    0.5920061728395041    0.4482149253731365
     0.4398003565062396    0.9336518518518488    0.4532358208955216
     0.4868449197860940    0.6744703703703721    0.4611074626865701
     0.4833547237076630    0.8479259259259280    0.4621044776119376
     0.5288770053475957    0.5889728395061695    0.4636268656716425
     0.5285490196078442    0.9235530864197514    0.4663074626865651
     0.5749304812834239    0.6677135802469110    0.4685223880597036
     0.5745561497326221    0.8337975308641958    0.4652149253731324
     0.6201069518716551    0.5853777777777793    0.4675462686567187
     0.6187593582887700    0.9170123456790122    0.4630686567164162
     0.6648092691622125    0.6586913580246900    0.4645611940298480
     0.6624634581105155    0.8292061728395055    0.4614149253731341
     0.7092976827094475    0.5812259259259278    0.4548656716417909
     0.7072620320855592    0.9128506172839508    0.4506686567164166
     0.7499429590017854    0.6618543209876577    0.4445343283582091
     0.7506417112299459    0.8308444444444447    0.4399283582089524
     0.7917290552584646    0.5757024691358055    0.4283492537313407
     0.7920998217468807    0.9112950617283957    0.4259641791044757
     0.8331265597147919    0.6633888888888890    0.4156656716417899
     0.8345169340463485    0.8306987654320963    0.4146149253731366
     0.8757718360071323    0.5850407407407374    0.3984298507462682
     0.8751907308377866    0.9152654320987637    0.4015611940298527
     0.9169304812834227    0.6666679012345682    0.3882119402985040
     0.9175971479500902    0.8355123456790139    0.3908597014925377
     0.9606737967914469    0.5840024691358039    0.3798895522388079
     0.9597789661319069    0.9169086419753114    0.3803611940298524
     0.0016499286987539    0.6690790123456765    0.3713880597014949
     0.0018525276292323    0.8405543209876569    0.3697880597014915
 
  0.00000000E+00  0.00000000E+00  0.00000000E+00
  0.00000000E+00  0.00000000E+00  0.00000000E+00
  0.00000000E+00  0.00000000E+00  0.00000000E+00
  0.00000000E+00  0.00000000E+00  0.00000000E+00
  0.00000000E+00  0.00000000E+00  0.00000000E+00
  0.00000000E+00  0.00000000E+00  0.00000000E+00
  0.00000000E+00  0.00000000E+00  0.00000000E+00
  0.00000000E+00  0.00000000E+00  0.00000000E+00
  0.00000000E+00  0.00000000E+00  0.00000000E+00
  0.00000000E+00  0.00000000E+00  0.00000000E+00
  0.00000000E+00  0.00000000E+00  0.00000000E+00
  0.00000000E+00  0.00000000E+00  0.00000000E+00
  0.00000000E+00  0.00000000E+00  0.00000000E+00
  0.00000000E+00  0.00000000E+00  0.00000000E+00
  0.00000000E+00  0.00000000E+00  0.00000000E+00
  0.00000000E+00  0.00000000E+00  0.00000000E+00
  0.00000000E+00  0.00000000E+00  0.00000000E+00
  0.00000000E+00  0.00000000E+00  0.00000000E+00
  0.00000000E+00  0.00000000E+00  0.00000000E+00
  0.00000000E+00  0.00000000E+00  0.00000000E+00
  0.00000000E+00  0.00000000E+00  0.00000000E+00
  0.00000000E+00  0.00000000E+00  0.00000000E+00
  0.00000000E+00  0.00000000E+00  0.00000000E+00
  0.00000000E+00  0.00000000E+00  0.00000000E+00
  0.00000000E+00  0.00000000E+00  0.00000000E+00
  0.00000000E+00  0.00000000E+00  0.00000000E+00
  0.00000000E+00  0.00000000E+00  0.00000000E+00
  0.00000000E+00  0.00000000E+00  0.00000000E+00
  0.00000000E+00  0.00000000E+00  0.00000000E+00
  0.00000000E+00  0.00000000E+00  0.00000000E+00
  0.00000000E+00  0.00000000E+00  0.00000000E+00
  0.00000000E+00  0.00000000E+00  0.00000000E+00
  0.00000000E+00  0.00000000E+00  0.00000000E+00
  0.00000000E+00  0.00000000E+00  0.00000000E+00
  0.00000000E+00  0.00000000E+00  0.00000000E+00
  0.00000000E+00  0.00000000E+00  0.00000000E+00
  0.00000000E+00  0.00000000E+00  0.00000000E+00
  0.00000000E+00  0.00000000E+00  0.00000000E+00
  0.00000000E+00  0.00000000E+00  0.00000000E+00
  0.00000000E+00  0.00000000E+00  0.00000000E+00
  0.00000000E+00  0.00000000E+00  0.00000000E+00
  0.00000000E+00  0.00000000E+00  0.00000000E+00
  0.00000000E+00  0.00000000E+00  0.00000000E+00
  0.00000000E+00  0.00000000E+00  0.00000000E+00
  0.00000000E+00  0.00000000E+00  0.00000000E+00
  0.00000000E+00  0.00000000E+00  0.00000000E+00
  0.00000000E+00  0.00000000E+00  0.00000000E+00
  0.00000000E+00  0.00000000E+00  0.00000000E+00
  0.00000000E+00  0.00000000E+00  0.00000000E+00
  0.00000000E+00  0.00000000E+00  0.00000000E+00
  0.00000000E+00  0.00000000E+00  0.00000000E+00
  0.00000000E+00  0.00000000E+00  0.00000000E+00
  0.00000000E+00  0.00000000E+00  0.00000000E+00
  0.00000000E+00  0.00000000E+00  0.00000000E+00
  0.00000000E+00  0.00000000E+00  0.00000000E+00
  0.00000000E+00  0.00000000E+00  0.00000000E+00
  0.00000000E+00  0.00000000E+00  0.00000000E+00
  0.00000000E+00  0.00000000E+00  0.00000000E+00
  0.00000000E+00  0.00000000E+00  0.00000000E+00
  0.00000000E+00  0.00000000E+00  0.00000000E+00
  0.00000000E+00  0.00000000E+00  0.00000000E+00
  0.00000000E+00  0.00000000E+00  0.00000000E+00
  0.00000000E+00  0.00000000E+00  0.00000000E+00
  0.00000000E+00  0.00000000E+00  0.00000000E+00
  0.00000000E+00  0.00000000E+00  0.00000000E+00
  0.00000000E+00  0.00000000E+00  0.00000000E+00
  0.00000000E+00  0.00000000E+00  0.00000000E+00
  0.00000000E+00  0.00000000E+00  0.00000000E+00
  0.00000000E+00  0.00000000E+00  0.00000000E+00
  0.00000000E+00  0.00000000E+00  0.00000000E+00
  0.00000000E+00  0.00000000E+00  0.00000000E+00
  0.00000000E+00  0.00000000E+00  0.00000000E+00
  0.00000000E+00  0.00000000E+00  0.00000000E+00
  0.00000000E+00  0.00000000E+00  0.00000000E+00
  0.00000000E+00  0.00000000E+00  0.00000000E+00
  0.00000000E+00  0.00000000E+00  0.00000000E+00
  0.00000000E+00  0.00000000E+00  0.00000000E+00
  0.00000000E+00  0.00000000E+00  0.00000000E+00
  0.00000000E+00  0.00000000E+00  0.00000000E+00
  0.00000000E+00  0.00000000E+00  0.00000000E+00
  0.00000000E+00  0.00000000E+00  0.00000000E+00
  0.00000000E+00  0.00000000E+00  0.00000000E+00
  0.00000000E+00  0.00000000E+00  0.00000000E+00
  0.00000000E+00  0.00000000E+00  0.00000000E+00
  0.00000000E+00  0.00000000E+00  0.00000000E+00
  0.00000000E+00  0.00000000E+00  0.00000000E+00
  0.00000000E+00  0.00000000E+00  0.00000000E+00
  0.00000000E+00  0.00000000E+00  0.00000000E+00
  0.00000000E+00  0.00000000E+00  0.00000000E+00
  0.00000000E+00  0.00000000E+00  0.00000000E+00
  0.00000000E+00  0.00000000E+00  0.00000000E+00
  0.00000000E+00  0.00000000E+00  0.00000000E+00
