 C 
 1.0000000000000000
    28.0500000000000007    0.0000000000000000    0.0000000000000000
     0.0000000000000000    8.0999999999999996    0.0000000000000000
     0.0000000000000000    0.0000000000000000   33.5000000000000000
 C  
  92
Cartesian
  1.5756200000000000  1.3931700000000000 12.3493999999999993
  1.5329200000000001  2.7772899999999998 12.1380999999999997
  2.7616399999999999  0.7475360000000000 12.4124999999999996
  2.7324400000000000  3.4148399999999999 12.3011999999999997
  4.0021899999999997  1.3853000000000000 12.5692000000000004
  4.0347999999999997  2.7401000000000000 12.3763000000000005
  5.1937400000000000  0.7325050000000000 12.9847999999999999
  5.2742399999999998  3.4033600000000002 12.5716999999999999
  6.4130000000000003  1.4037500000000001 13.0907999999999998
  6.4839300000000000  2.7272599999999998 12.8056999999999999
  7.5819999999999999  0.7234140000000000 13.5312000000000001
  7.6498799999999996  3.3747500000000001 13.3008000000000006
  8.8124800000000008  1.3667400000000001 13.7383000000000006
  8.9041099999999993  2.7514099999999999 13.6213999999999995
  9.9636300000000002  0.7229040000000000 14.2929999999999993
 10.0576000000000008  3.4389200000000000 14.1363000000000003
 11.2012999999999998  1.3894200000000001 14.4266000000000005
 11.2575000000000003  2.7767499999999998 14.3937000000000008
 12.3902999999999999  0.7657260000000000 14.9323999999999995
 12.4285999999999994  3.4455100000000001 14.8147000000000002
 13.6473999999999993  1.4113199999999999 15.1262000000000008
 13.6538000000000004  2.7631800000000002 15.2348999999999997
 14.8637999999999995  0.7405030000000000 15.3939000000000004
 14.8597000000000001  3.4058700000000002 15.4716000000000005
 16.0925000000000011  1.3855900000000001 15.4324999999999992
 16.1100999999999992  2.7162600000000001 15.4773999999999994
 17.3734000000000002  0.7147720000000000 15.3336000000000006
 17.3895000000000017  3.3587799999999999 15.5210000000000008
 18.5478999999999985  1.3689600000000000 15.2017000000000007
 18.5911000000000008  2.7225999999999999 15.3300999999999998
 19.7561000000000000  0.6072320000000000 14.9748999999999999
 19.8366000000000007  3.3175900000000000 15.1714000000000002
 20.9236000000000004  1.2830500000000000 14.5373999999999999
 20.9738000000000007  2.6610200000000002 14.6250999999999998
 22.1370000000000005  0.6559120000000001 14.0860000000000003
 22.1554000000000002  3.3158300000000001 14.1942000000000004
 23.2823999999999991  1.3142499999999999 13.5925999999999991
 23.2729999999999997  2.6752400000000001 13.5815000000000001
 24.4933000000000014  0.6962720000000000 13.3234999999999992
 24.4800000000000004  3.3803700000000001 13.2172000000000001
 25.6832999999999991  1.3040200000000000 12.7858999999999998
 25.6612000000000009  2.6876199999999999 12.8133999999999997
 26.9327000000000005  0.6723789999999999 12.6542999999999992
 26.9186000000000014  3.3709600000000002 12.5608000000000004
  0.0846438000000000  1.3173800000000000 12.3714999999999993
  0.0529681000000000  2.7309500000000000 12.2542000000000009
  1.4999899999999999  5.4157500000000001 12.5393000000000008
  1.5068999999999999  6.8210300000000004 12.5104000000000006
  2.7207300000000001  4.7343799999999998 12.5562000000000005
  2.7016100000000001  7.5093899999999998 12.6164000000000005
  3.9173900000000001  5.4289800000000001 12.8231000000000002
  3.8988000000000000  6.8316699999999999 12.9749999999999996
  5.1884499999999996  4.7528400000000000 12.9001999999999999
  5.1414499999999999  7.4567100000000002 13.1857000000000006
  6.4144300000000003  5.4406400000000001 13.2347999999999999
  6.3583900000000000  6.7434500000000002 13.4269999999999996
  7.5773700000000002  4.7481200000000001 13.5982000000000003
  7.5732100000000004  7.4530099999999999 13.7136999999999993
  8.7221600000000006  5.4699900000000001 14.1014999999999997
  8.7095199999999995  6.8176300000000003 14.2256000000000000
  9.9908300000000008  4.7674300000000001 14.4039000000000001
  9.9105299999999996  7.4678800000000001 14.5691000000000006
 11.1829999999999998  5.4587300000000001 14.8325999999999993
 11.1788000000000007  6.8124300000000000 14.9404000000000003
 12.4121000000000006  4.7952500000000002 15.0152000000000001
 12.3363999999999994  7.5625799999999996 15.1834000000000007
 13.6560000000000006  5.4632100000000001 15.4471000000000007
 13.5580999999999996  6.8681999999999999 15.4804999999999993
 14.8350000000000009  4.7706799999999996 15.5314999999999994
 14.8257999999999992  7.4807800000000002 15.6212999999999997
 16.1267999999999994  5.4084800000000000 15.6954999999999991
 16.1162999999999990  6.7537599999999998 15.5846999999999998
 17.3939999999999984  4.7415599999999998 15.6628000000000007
 17.3562000000000012  7.4278000000000004 15.5128000000000004
 18.6478999999999999  5.3353999999999999 15.5627999999999993
 18.5821000000000005  6.7165699999999999 15.4573999999999998
 19.8958000000000013  4.7079300000000002 15.2379999999999995
 19.8386999999999993  7.3940900000000003 15.0974000000000004
 21.0359000000000016  5.3610199999999999 14.8918999999999997
 21.0554999999999986  6.7298400000000003 14.7376000000000005
 22.2079999999999984  4.6631900000000002 14.3497000000000003
 22.2183999999999990  7.3814900000000003 14.2698000000000000
 23.3691999999999993  5.3734500000000001 13.9247999999999994
 23.4082000000000008  6.7286599999999996 13.8895999999999997
 24.5654000000000003  4.7388300000000001 13.3474000000000004
 24.5490999999999993  7.4136499999999996 13.4522999999999993
 25.7198999999999991  5.4000100000000000 13.0051000000000005
 25.7386000000000017  6.7676499999999997 13.0937999999999999
 26.9468999999999994  4.7304199999999996 12.7263000000000002
 26.9218000000000011  7.4269600000000002 12.7421000000000006
  0.0462805000000000  5.4195399999999996 12.4414999999999996
  0.0519634000000000  6.8084899999999999 12.3879000000000001
