 C                                      
    1.000000000000000     
    28.0500000000000007    0.0000000000000000    0.0000000000000000
     0.0000000000000000    8.0999999999999996    0.0000000000000000
     0.0000000000000000    0.0000000000000000   33.5000000000000000
   C 
    92
Direct
     0.0079071657754000    0.1113860493827161    0.4657283582089562
     0.0103754367201461    0.2826382716049380    0.4600149253731374
     0.0497329768270944    0.0283453086419740    0.4725253731343315
     0.0542096256684488    0.3561148148148163    0.4569313432835855
     0.0932499108734390    0.1085818518518522    0.4791074626865637
     0.0959778966131921    0.2736765432098736    0.4701373134328364
     0.1363450980392145    0.0254134567901261    0.4891850746268673
     0.1408545454545447    0.3594765432098797    0.4743611940298536
     0.1771112299465258    0.1077476543209883    0.5003611940298498
     0.1827746880570444    0.2769839506172858    0.4878089552238833
     0.2209044563279861    0.0247011111111135    0.5090238805970131
     0.2266224598930506    0.3511271604938244    0.4913194029850771
     0.2638527629233494    0.1009823456790144    0.5172000000000025
     0.2681315508021385    0.2724012345679014    0.5061044776119417
     0.3060631016042805    0.0169146913580249    0.5286268656716402
     0.3105397504456349    0.3554962962962946    0.5139283582089575
     0.3478007130124752    0.1074664197530879    0.5361671641791048
     0.3509932263814619    0.2742000000000004    0.5270029850746241
     0.3918324420677379    0.0200777777777787    0.5464477611940310
     0.3928591800356500    0.3539111111111097    0.5306746268656681
     0.4354046345811042    0.1071900000000028    0.5491462686567132
     0.4362531194295869    0.2776395061728394    0.5407701492537313
     0.4801247771835975    0.0168298765432127    0.5472447761194061
     0.4814616755793253    0.3554827160493801    0.5339253731343305
     0.5232156862745114    0.1049793827160528    0.5441164179104447
     0.5237754010695213    0.2715382716049390    0.5409223880596983
     0.5693368983957185    0.0238172839506205    0.5407074626865693
     0.5689625668449168    0.3523185185185156    0.5338955223880575
     0.6145240641711212    0.0994272839506181    0.5330447761194037
     0.6135721925133666    0.2695679012345664    0.5303522388059676
     0.6585561497326182    0.0164003703703699    0.5236985074626830
     0.6559786096256701    0.3497283950617316    0.5197373134328345
     0.7040356506238865    0.0964488888888866    0.5184358208955189
     0.7004884135472338    0.2655765432098747    0.5128328358208947
     0.7453155080213918    0.0128581481481476    0.5056865671641759
     0.7419857397504472    0.3523703703703731    0.4972597014925384
     0.7868270944741553    0.1006977777777749    0.4941910447761160
     0.7864028520499105    0.2699432098765442    0.4897761194029826
     0.8286916221033849    0.0181476543209911    0.4817134328358179
     0.8283529411764690    0.3567469135802455    0.4774835820895547
     0.8715472370766477    0.1025348148148169    0.4733671641791020
     0.8712513368983963    0.2687407407407392    0.4698925373134344
     0.9143850267379676    0.0260166666666635    0.4677134328358221
     0.9149518716577560    0.3560654320987666    0.4563432835820862
     0.9560320855614961    0.1069874074074093    0.4581462686567193
     0.9584955436720151    0.2784456790123429    0.4524925373134323
     0.0127353297682689    0.6043234567901266    0.4464955223880622
     0.0096407843137243    0.7647209876543215    0.4576686567164145
     0.0555739750445667    0.5260481481481492    0.4525940298507436
     0.0506755793226361    0.8539790123456825    0.4677164179104452
     0.0997714795008946    0.6093765432098763    0.4586805970149257
     0.0937942959001816    0.7761024691358003    0.4699731343283560
     0.1434370766488442    0.5257333333333349    0.4676597014925363
     0.1364588235294093    0.8643049382716015    0.4820298507462653
     0.1857682709447417    0.6154358024691362    0.4762746268656741
     0.1812841354723673    0.7797506172839519    0.4859074626865691
     0.2272980392156896    0.5280617283950590    0.4868597014925342
     0.2207828877005369    0.8513728395061761    0.5052417910447744
     0.2642349376114055    0.6102469135802480    0.5060865671641821
     0.2618409982174654    0.7688395061728386    0.5167522388059709
     0.3078877005347564    0.5242370370370395    0.5145014925373133
     0.3035158645276326    0.8467666666666673    0.5298597014925406
     0.3500160427807515    0.6063790123456769    0.5268985074626897
     0.3486852049910851    0.7734543209876534    0.5343074626865700
     0.3945311942959009    0.5241864197530859    0.5243432835820911
     0.3928805704099787    0.8558592592592618    0.5416507462686582
     0.4361568627451007    0.6107197530864212    0.5268865671641763
     0.4358324420677349    0.7697222222222209    0.5376835820895494
     0.4800178253119398    0.5273098765432067    0.5279641791044796
     0.4804812834224634    0.8511604938271589    0.5434477611940309
     0.5241960784313733    0.6039209876543197    0.5290447761194059
     0.5266238859180064    0.7648469135802500    0.5365671641791039
     0.5682210338680918    0.5208012345678981    0.5252417910447775
     0.5689269162210309    0.8540024691357999    0.5349970149253735
     0.6122745098039246    0.6011728395061695    0.5228805970149253
     0.6125775401069546    0.7677469135802468    0.5246268656716424
     0.6559500891265628    0.5191481481481475    0.5171582089552231
     0.6569304812834247    0.8478753086419744    0.5180985074626889
     0.6966274509803938    0.5990777777777794    0.5025761194029883
     0.6984919786096242    0.7678716049382714    0.5018746268656713
     0.7384491978609660    0.5215938271604941    0.4909373134328376
     0.7413511586452728    0.8529320987654359    0.4958746268656711
     0.7804598930481319    0.6033172839506165    0.4761910447761224
     0.7829518716577510    0.7688222222222194    0.4829044776119389
     0.8262245989304802    0.5209172839506166    0.4701432835820896
     0.8271515151515132    0.8514246913580266    0.4759731343283562
     0.8684064171122969    0.6040370370370383    0.4608537313432848
     0.8707379679144367    0.7665234567901251    0.4679044776119383
     0.9122317290552573    0.5257925925925946    0.4529343283582108
     0.9160035650623897    0.8518024691358050    0.4681522388059705
     0.9556827094474158    0.6021259259259253    0.4461731343283617
     0.9558324420677380    0.7729987654320993    0.4558597014925354
 
  0.00000000E+00  0.00000000E+00  0.00000000E+00
  0.00000000E+00  0.00000000E+00  0.00000000E+00
  0.00000000E+00  0.00000000E+00  0.00000000E+00
  0.00000000E+00  0.00000000E+00  0.00000000E+00
  0.00000000E+00  0.00000000E+00  0.00000000E+00
  0.00000000E+00  0.00000000E+00  0.00000000E+00
  0.00000000E+00  0.00000000E+00  0.00000000E+00
  0.00000000E+00  0.00000000E+00  0.00000000E+00
  0.00000000E+00  0.00000000E+00  0.00000000E+00
  0.00000000E+00  0.00000000E+00  0.00000000E+00
  0.00000000E+00  0.00000000E+00  0.00000000E+00
  0.00000000E+00  0.00000000E+00  0.00000000E+00
  0.00000000E+00  0.00000000E+00  0.00000000E+00
  0.00000000E+00  0.00000000E+00  0.00000000E+00
  0.00000000E+00  0.00000000E+00  0.00000000E+00
  0.00000000E+00  0.00000000E+00  0.00000000E+00
  0.00000000E+00  0.00000000E+00  0.00000000E+00
  0.00000000E+00  0.00000000E+00  0.00000000E+00
  0.00000000E+00  0.00000000E+00  0.00000000E+00
  0.00000000E+00  0.00000000E+00  0.00000000E+00
  0.00000000E+00  0.00000000E+00  0.00000000E+00
  0.00000000E+00  0.00000000E+00  0.00000000E+00
  0.00000000E+00  0.00000000E+00  0.00000000E+00
  0.00000000E+00  0.00000000E+00  0.00000000E+00
  0.00000000E+00  0.00000000E+00  0.00000000E+00
  0.00000000E+00  0.00000000E+00  0.00000000E+00
  0.00000000E+00  0.00000000E+00  0.00000000E+00
  0.00000000E+00  0.00000000E+00  0.00000000E+00
  0.00000000E+00  0.00000000E+00  0.00000000E+00
  0.00000000E+00  0.00000000E+00  0.00000000E+00
  0.00000000E+00  0.00000000E+00  0.00000000E+00
  0.00000000E+00  0.00000000E+00  0.00000000E+00
  0.00000000E+00  0.00000000E+00  0.00000000E+00
  0.00000000E+00  0.00000000E+00  0.00000000E+00
  0.00000000E+00  0.00000000E+00  0.00000000E+00
  0.00000000E+00  0.00000000E+00  0.00000000E+00
  0.00000000E+00  0.00000000E+00  0.00000000E+00
  0.00000000E+00  0.00000000E+00  0.00000000E+00
  0.00000000E+00  0.00000000E+00  0.00000000E+00
  0.00000000E+00  0.00000000E+00  0.00000000E+00
  0.00000000E+00  0.00000000E+00  0.00000000E+00
  0.00000000E+00  0.00000000E+00  0.00000000E+00
  0.00000000E+00  0.00000000E+00  0.00000000E+00
  0.00000000E+00  0.00000000E+00  0.00000000E+00
  0.00000000E+00  0.00000000E+00  0.00000000E+00
  0.00000000E+00  0.00000000E+00  0.00000000E+00
  0.00000000E+00  0.00000000E+00  0.00000000E+00
  0.00000000E+00  0.00000000E+00  0.00000000E+00
  0.00000000E+00  0.00000000E+00  0.00000000E+00
  0.00000000E+00  0.00000000E+00  0.00000000E+00
  0.00000000E+00  0.00000000E+00  0.00000000E+00
  0.00000000E+00  0.00000000E+00  0.00000000E+00
  0.00000000E+00  0.00000000E+00  0.00000000E+00
  0.00000000E+00  0.00000000E+00  0.00000000E+00
  0.00000000E+00  0.00000000E+00  0.00000000E+00
  0.00000000E+00  0.00000000E+00  0.00000000E+00
  0.00000000E+00  0.00000000E+00  0.00000000E+00
  0.00000000E+00  0.00000000E+00  0.00000000E+00
  0.00000000E+00  0.00000000E+00  0.00000000E+00
  0.00000000E+00  0.00000000E+00  0.00000000E+00
  0.00000000E+00  0.00000000E+00  0.00000000E+00
  0.00000000E+00  0.00000000E+00  0.00000000E+00
  0.00000000E+00  0.00000000E+00  0.00000000E+00
  0.00000000E+00  0.00000000E+00  0.00000000E+00
  0.00000000E+00  0.00000000E+00  0.00000000E+00
  0.00000000E+00  0.00000000E+00  0.00000000E+00
  0.00000000E+00  0.00000000E+00  0.00000000E+00
  0.00000000E+00  0.00000000E+00  0.00000000E+00
  0.00000000E+00  0.00000000E+00  0.00000000E+00
  0.00000000E+00  0.00000000E+00  0.00000000E+00
  0.00000000E+00  0.00000000E+00  0.00000000E+00
  0.00000000E+00  0.00000000E+00  0.00000000E+00
  0.00000000E+00  0.00000000E+00  0.00000000E+00
  0.00000000E+00  0.00000000E+00  0.00000000E+00
  0.00000000E+00  0.00000000E+00  0.00000000E+00
  0.00000000E+00  0.00000000E+00  0.00000000E+00
  0.00000000E+00  0.00000000E+00  0.00000000E+00
  0.00000000E+00  0.00000000E+00  0.00000000E+00
  0.00000000E+00  0.00000000E+00  0.00000000E+00
  0.00000000E+00  0.00000000E+00  0.00000000E+00
  0.00000000E+00  0.00000000E+00  0.00000000E+00
  0.00000000E+00  0.00000000E+00  0.00000000E+00
  0.00000000E+00  0.00000000E+00  0.00000000E+00
  0.00000000E+00  0.00000000E+00  0.00000000E+00
  0.00000000E+00  0.00000000E+00  0.00000000E+00
  0.00000000E+00  0.00000000E+00  0.00000000E+00
  0.00000000E+00  0.00000000E+00  0.00000000E+00
  0.00000000E+00  0.00000000E+00  0.00000000E+00
  0.00000000E+00  0.00000000E+00  0.00000000E+00
  0.00000000E+00  0.00000000E+00  0.00000000E+00
  0.00000000E+00  0.00000000E+00  0.00000000E+00
  0.00000000E+00  0.00000000E+00  0.00000000E+00
