 C                                      
    1.000000000000000     
    28.0500000000000007    0.0000000000000000    0.0000000000000000
     0.0000000000000000    8.0999999999999996    0.0000000000000000
     0.0000000000000000    0.0000000000000000   33.5000000000000000
   C 
    92
Direct
     0.0088013190730862    0.1053109876543203    0.5262835820895546
     0.0066914081996430    0.2781629629629663    0.5247850746268625
     0.0489137254901948    0.0243159259259258    0.5332089552238841
     0.0496174688057067    0.3624086419753070    0.5320089552238798
     0.0940734402852073    0.1078324691358006    0.5366268656716429
     0.0931197860962598    0.2754987654320971    0.5347194029850755
     0.1360345811051715    0.0282376543209892    0.5451402985074623
     0.1361561497326207    0.3580975308641996    0.5387432835820860
     0.1808791443850239    0.1069516049382742    0.5407402985074654
     0.1790470588235280    0.2704271604938242    0.5368716417910449
     0.2248966131907295    0.0214539506172855    0.5405880597014914
     0.2229037433155057    0.3592654320987663    0.5326388059701515
     0.2668852049910839    0.1012835802469141    0.5295522388059695
     0.2657579322638171    0.2710790123456803    0.5247820895522395
     0.3107522281639916    0.0217655555555538    0.5196238805970168
     0.3099572192513378    0.3515530864197558    0.5205343283582096
     0.3514980392156843    0.1024571604938274    0.5060000000000002
     0.3514524064171098    0.2685938271604940    0.5089940298507472
     0.3948663101604311    0.0220391358024656    0.4971880597014930
     0.3949839572192531    0.3517580246913568    0.5013522388059712
     0.4376292335115863    0.1048466666666670    0.4863343283582111
     0.4395864527629243    0.2744864197530887    0.4906358208955197
     0.4797754010695172    0.0184802469135832    0.4749552238805990
     0.4821212121212142    0.3499209876543219    0.4826328358208940
     0.5229447415329744    0.0981613580246901    0.4643432835820889
     0.5260427807486607    0.2663382716049369    0.4700089552238822
     0.5674616755793238    0.0143797530864163    0.4546477611940318
     0.5670516934046361    0.3492604938271597    0.4570955223880588
     0.6109233511586467    0.1027850617283974    0.4496238805970165
     0.6110873440285189    0.2714864197530886    0.4518537313432844
     0.6550303030303013    0.0201170370370392    0.4464358208955232
     0.6548734402852077    0.3575901234567880    0.4554776119402959
     0.6995721925133722    0.1058628395061731    0.4519432835820894
     0.6981461675579297    0.2736716049382721    0.4578835820895506
     0.7437754010695201    0.0244538271604924    0.4580388059701477
     0.7433440285204966    0.3529283950617312    0.4619223880597048
     0.7855508021390349    0.1057129629629614    0.4713104477611907
     0.7864670231729036    0.2754370370370367    0.4704597014925369
     0.8298645276292334    0.0220453086419781    0.4828388059701467
     0.8301354723707632    0.3585777777777750    0.4868537313432810
     0.8750552584670217    0.1009737037037013    0.4939761194029870
     0.8726096256684457    0.2772728395061748    0.4958746268656711
     0.9161354723707689    0.0191439506172841    0.5071104477611925
     0.9131372549019616    0.3585987654320988    0.5115313432835791
     0.9577967914438474    0.0980233333333302    0.5198179104477632
     0.9564171122994622    0.2718580246913547    0.5196865671641788
     0.0051457040998244    0.6078160493827127    0.5296358208955212
     0.0040959001782497    0.7792197530864229    0.5312149253731349
     0.0480752228164008    0.5316481481481503    0.5383313432835806
     0.0477048128342261    0.8612913580246939    0.5391791044776113
     0.0925426024955414    0.6064345679012320    0.5439880597014906
     0.0904673796791471    0.7727876543209860    0.5465582089552257
     0.1374409982174711    0.5230370370370352    0.5441791044776139
     0.1366242424242401    0.8596111111111142    0.5457552238805974
     0.1808303030303051    0.6023802469135831    0.5467044776119394
     0.1818349376114057    0.7756888888888867    0.5467522388059720
     0.2238099821746857    0.5231111111111133    0.5390686567164167
     0.2259764705882361    0.8506938271604909    0.5438328358208935
     0.2687761140819944    0.6007604938271598    0.5377402985074653
     0.2696196078431399    0.7722938271604960    0.5367522388059669
     0.3096962566844894    0.5243037037037013    0.5217552238805965
     0.3123857397504466    0.8531753086419727    0.5252686567164204
     0.3526335115864541    0.5974259259259256    0.5116776119402999
     0.3549693404634553    0.7667703703703737    0.5132537313432834
     0.3957896613190712    0.5169444444444480    0.4981850746268677
     0.3964741532976817    0.8507444444444445    0.5003223880597005
     0.4385454545454550    0.6031358024691329    0.4877194029850713
     0.4392192513369011    0.7679716049382748    0.4889462686567185
     0.4813368983957247    0.5186950617283941    0.4768597014925362
     0.4816684491978620    0.8530543209876527    0.4758268656716425
     0.5234367201426053    0.6008407407407432    0.4658029850746246
     0.5245704099821751    0.7683098765432135    0.4662537313432864
     0.5665989304812840    0.5190641975308665    0.4558208955223861
     0.5672477718360085    0.8484765432098769    0.4560089552238793
     0.6115436720142569    0.5989358024691356    0.4502805970149240
     0.6121746880570385    0.7669432098765441    0.4521104477611928
     0.6569732620320821    0.5228925925925907    0.4556985074626851
     0.6561426024955423    0.8511283950617283    0.4481134328358181
     0.7000641711229960    0.6028518518518524    0.4587194029850750
     0.7026809269162229    0.7722024691358058    0.4533402985074630
     0.7428377896613156    0.5230296296296331    0.4668895522388041
     0.7468520499108706    0.8548530864197517    0.4611731343283552
     0.7847593582887669    0.6042246913580271    0.4806507462686582
     0.7862174688057024    0.7706061728395071    0.4772746268656718
     0.8275401069518722    0.5255333333333354    0.4937164179104485
     0.8289732620320862    0.8595283950617301    0.4870358208955210
     0.8676185383244217    0.6107987654321008    0.5104776119402956
     0.8661461675579289    0.7794358024691377    0.5043731343283611
     0.9132049910873405    0.5250197530864185    0.5157432835820899
     0.9113832442067746    0.8526111111111092    0.5147522388059684
     0.9533262032085545    0.6074111111111122    0.5255402985074653
     0.9519001782531191    0.7763925925925932    0.5270298507462670
 
  0.00000000E+00  0.00000000E+00  0.00000000E+00
  0.00000000E+00  0.00000000E+00  0.00000000E+00
  0.00000000E+00  0.00000000E+00  0.00000000E+00
  0.00000000E+00  0.00000000E+00  0.00000000E+00
  0.00000000E+00  0.00000000E+00  0.00000000E+00
  0.00000000E+00  0.00000000E+00  0.00000000E+00
  0.00000000E+00  0.00000000E+00  0.00000000E+00
  0.00000000E+00  0.00000000E+00  0.00000000E+00
  0.00000000E+00  0.00000000E+00  0.00000000E+00
  0.00000000E+00  0.00000000E+00  0.00000000E+00
  0.00000000E+00  0.00000000E+00  0.00000000E+00
  0.00000000E+00  0.00000000E+00  0.00000000E+00
  0.00000000E+00  0.00000000E+00  0.00000000E+00
  0.00000000E+00  0.00000000E+00  0.00000000E+00
  0.00000000E+00  0.00000000E+00  0.00000000E+00
  0.00000000E+00  0.00000000E+00  0.00000000E+00
  0.00000000E+00  0.00000000E+00  0.00000000E+00
  0.00000000E+00  0.00000000E+00  0.00000000E+00
  0.00000000E+00  0.00000000E+00  0.00000000E+00
  0.00000000E+00  0.00000000E+00  0.00000000E+00
  0.00000000E+00  0.00000000E+00  0.00000000E+00
  0.00000000E+00  0.00000000E+00  0.00000000E+00
  0.00000000E+00  0.00000000E+00  0.00000000E+00
  0.00000000E+00  0.00000000E+00  0.00000000E+00
  0.00000000E+00  0.00000000E+00  0.00000000E+00
  0.00000000E+00  0.00000000E+00  0.00000000E+00
  0.00000000E+00  0.00000000E+00  0.00000000E+00
  0.00000000E+00  0.00000000E+00  0.00000000E+00
  0.00000000E+00  0.00000000E+00  0.00000000E+00
  0.00000000E+00  0.00000000E+00  0.00000000E+00
  0.00000000E+00  0.00000000E+00  0.00000000E+00
  0.00000000E+00  0.00000000E+00  0.00000000E+00
  0.00000000E+00  0.00000000E+00  0.00000000E+00
  0.00000000E+00  0.00000000E+00  0.00000000E+00
  0.00000000E+00  0.00000000E+00  0.00000000E+00
  0.00000000E+00  0.00000000E+00  0.00000000E+00
  0.00000000E+00  0.00000000E+00  0.00000000E+00
  0.00000000E+00  0.00000000E+00  0.00000000E+00
  0.00000000E+00  0.00000000E+00  0.00000000E+00
  0.00000000E+00  0.00000000E+00  0.00000000E+00
  0.00000000E+00  0.00000000E+00  0.00000000E+00
  0.00000000E+00  0.00000000E+00  0.00000000E+00
  0.00000000E+00  0.00000000E+00  0.00000000E+00
  0.00000000E+00  0.00000000E+00  0.00000000E+00
  0.00000000E+00  0.00000000E+00  0.00000000E+00
  0.00000000E+00  0.00000000E+00  0.00000000E+00
  0.00000000E+00  0.00000000E+00  0.00000000E+00
  0.00000000E+00  0.00000000E+00  0.00000000E+00
  0.00000000E+00  0.00000000E+00  0.00000000E+00
  0.00000000E+00  0.00000000E+00  0.00000000E+00
  0.00000000E+00  0.00000000E+00  0.00000000E+00
  0.00000000E+00  0.00000000E+00  0.00000000E+00
  0.00000000E+00  0.00000000E+00  0.00000000E+00
  0.00000000E+00  0.00000000E+00  0.00000000E+00
  0.00000000E+00  0.00000000E+00  0.00000000E+00
  0.00000000E+00  0.00000000E+00  0.00000000E+00
  0.00000000E+00  0.00000000E+00  0.00000000E+00
  0.00000000E+00  0.00000000E+00  0.00000000E+00
  0.00000000E+00  0.00000000E+00  0.00000000E+00
  0.00000000E+00  0.00000000E+00  0.00000000E+00
  0.00000000E+00  0.00000000E+00  0.00000000E+00
  0.00000000E+00  0.00000000E+00  0.00000000E+00
  0.00000000E+00  0.00000000E+00  0.00000000E+00
  0.00000000E+00  0.00000000E+00  0.00000000E+00
  0.00000000E+00  0.00000000E+00  0.00000000E+00
  0.00000000E+00  0.00000000E+00  0.00000000E+00
  0.00000000E+00  0.00000000E+00  0.00000000E+00
  0.00000000E+00  0.00000000E+00  0.00000000E+00
  0.00000000E+00  0.00000000E+00  0.00000000E+00
  0.00000000E+00  0.00000000E+00  0.00000000E+00
  0.00000000E+00  0.00000000E+00  0.00000000E+00
  0.00000000E+00  0.00000000E+00  0.00000000E+00
  0.00000000E+00  0.00000000E+00  0.00000000E+00
  0.00000000E+00  0.00000000E+00  0.00000000E+00
  0.00000000E+00  0.00000000E+00  0.00000000E+00
  0.00000000E+00  0.00000000E+00  0.00000000E+00
  0.00000000E+00  0.00000000E+00  0.00000000E+00
  0.00000000E+00  0.00000000E+00  0.00000000E+00
  0.00000000E+00  0.00000000E+00  0.00000000E+00
  0.00000000E+00  0.00000000E+00  0.00000000E+00
  0.00000000E+00  0.00000000E+00  0.00000000E+00
  0.00000000E+00  0.00000000E+00  0.00000000E+00
  0.00000000E+00  0.00000000E+00  0.00000000E+00
  0.00000000E+00  0.00000000E+00  0.00000000E+00
  0.00000000E+00  0.00000000E+00  0.00000000E+00
  0.00000000E+00  0.00000000E+00  0.00000000E+00
  0.00000000E+00  0.00000000E+00  0.00000000E+00
  0.00000000E+00  0.00000000E+00  0.00000000E+00
  0.00000000E+00  0.00000000E+00  0.00000000E+00
  0.00000000E+00  0.00000000E+00  0.00000000E+00
  0.00000000E+00  0.00000000E+00  0.00000000E+00
  0.00000000E+00  0.00000000E+00  0.00000000E+00
