 C                                      
    1.000000000000000     
    28.0500000000000007    0.0000000000000000    0.0000000000000000
     0.0000000000000000    8.0999999999999996    0.0000000000000000
     0.0000000000000000    0.0000000000000000   33.5000000000000000
   C 
    92
Direct
     0.0047333333333341    0.1037045679012323    0.4528328358208924
     0.0057026737967902    0.2736592592592615    0.4519910447761220
     0.0475914438502656    0.0213956790123433    0.4565701492537286
     0.0491397504456330    0.3595666666666659    0.4552895522388027
     0.0935928698752235    0.0991091358024718    0.4516119402985055
     0.0935900178253135    0.2708345679012325    0.4521194029850761
     0.1374395721925126    0.0210203703703726    0.4574208955223895
     0.1379882352941166    0.3524197530864228    0.4560447761194055
     0.1834067736185361    0.1006702469135803    0.4570149253731373
     0.1834588235294135    0.2714938271604908    0.4550477611940309
     0.2277903743315477    0.0148204938271590    0.4637999999999991
     0.2274695187165747    0.3606407407407417    0.4653582089552231
     0.2694634581105149    0.0999939506172822    0.4713313432835804
     0.2696456327985715    0.2692197530864178    0.4759999999999991
     0.3142449197860984    0.0220944444444413    0.4804716417910413
     0.3073629233511568    0.3505876543209894    0.4933611940298519
     0.3550955436720145    0.1007804938271590    0.4927641791044763
     0.3508570409982141    0.2677481481481507    0.5022686567164172
     0.3975044563279866    0.0144982716049356    0.5035223880597002
     0.3923529411764690    0.3520197530864166    0.5162507462686534
     0.4394438502673808    0.1021270370370360    0.5124507462686552
     0.4371194295900196    0.2722283950617310    0.5169940298507427
     0.4827985739750460    0.0198313580246889    0.5220238805970183
     0.4789518716577561    0.3549913580246908    0.5272865671641824
     0.5249411764705911    0.1066998765432103    0.5278029850746293
     0.5256042780748658    0.2735790123456781    0.5308298507462652
     0.5685668449197863    0.0221928395061752    0.5361791044776112
     0.5668734402852067    0.3579641975308618    0.5396179104477596
     0.6108877005347608    0.1070111111111132    0.5369044776119409
     0.6099643493761135    0.2745703703703697    0.5378358208955234
     0.6549447415329794    0.0255828395061712    0.5362238805970136
     0.6556827094474187    0.3510555555555541    0.5326507462686578
     0.6972834224598898    0.1039313580246883    0.5245134328358176
     0.6982103386809300    0.2780481481481516    0.5217134328358242
     0.7413440285205013    0.0225090123456795    0.5178358208955203
     0.7418823529411753    0.3583135802469144    0.5150835820895523
     0.7836934046345831    0.1058017283950647    0.5067194029850768
     0.7855650623885921    0.2738555555555564    0.5054597014925406
     0.8274188948306573    0.0229329629629618    0.5016955223880615
     0.8292014260249587    0.3635382716049378    0.5006776119402971
     0.8697254901960818    0.1055035802469106    0.4893671641791073
     0.8709590017825306    0.2712308641975341    0.4900238805970147
     0.9130231729055254    0.0165039506172846    0.4809910447761183
     0.9136434937611426    0.3570049382716078    0.4812417910447735
     0.9527664884135447    0.1056350617283925    0.4669283582089534
     0.9511836007130157    0.2715802469135795    0.4651104477611909
     0.0078830303030273    0.6063592592592570    0.4749701492537284
     0.0085976827094498    0.7807753086419780    0.4744298507462688
     0.0497632798573946    0.5181172839506161    0.4690686567164164
     0.0501921568627424    0.8630382716049354    0.4687343283582095
     0.0926901960784292    0.6064271604938298    0.4697701492537334
     0.0940770053475930    0.7745024691358040    0.4687671641791056
     0.1349593582887678    0.5175938271604963    0.4655582089552226
     0.1386919786096286    0.8592703703703677    0.4683552238806001
     0.1766427807486650    0.6029580246913611    0.4729373134328370
     0.1815351158645271    0.7708790123456808    0.4676537313432831
     0.2236185383244234    0.5205024691357991    0.4722746268656692
     0.2260666666666680    0.8492209876543200    0.4671820895522387
     0.2644670231729052    0.6043827160493862    0.4862477611940292
     0.2673301247771818    0.7717530864197499    0.4813283582089554
     0.3077725490196102    0.5233197530864189    0.4961582089552223
     0.3102755793226351    0.8545765432098733    0.4874626865671630
     0.3480909090909066    0.6031950617283925    0.5105940298507434
     0.3518114081996444    0.7693061728395065    0.5024477611940270
     0.3924563279857409    0.5191148148148130    0.5205970149253716
     0.3935935828877035    0.8451111111111089    0.5110626865671648
     0.4356720142602484    0.6004518518518509    0.5310537313432846
     0.4339215686274542    0.7703382716049418    0.5266238805970147
     0.4779144385026726    0.5154197530864195    0.5377402985074653
     0.4780891265597162    0.8520037037037014    0.5332268656716437
     0.5227700534759379    0.6006580246913558    0.5441910447761202
     0.5229946524064175    0.7743259259259290    0.5408776119402958
     0.5677326203208537    0.5258530864197510    0.5477761194029824
     0.5673119429590017    0.8588123456790129    0.5414000000000030
     0.6125525846702331    0.6097740740740747    0.5483134328358190
     0.6124598930481255    0.7769197530864176    0.5463104477611935
     0.6559857397504487    0.5226111111111109    0.5379044776119386
     0.6567094474153308    0.8595654320987620    0.5409074626865689
     0.6987450980392182    0.6031962962962965    0.5320208955223862
     0.6994402852049930    0.7748938271604970    0.5367014925373113
     0.7436648841354696    0.5231481481481453    0.5240089552238771
     0.7439073083778993    0.8586629629629599    0.5276447761194021
     0.7889090909090939    0.6077691358024708    0.5218417910447783
     0.7877932263814600    0.7741987654320965    0.5222507462686536
     0.8308413547237095    0.5268395061728413    0.5130119402985045
     0.8299465240641695    0.8509975308641984    0.5107940298507430
     0.8753761140819947    0.6011197530864223    0.5058776119402992
     0.8755151515151525    0.7666567901234558    0.5033074626865641
     0.9169055258467012    0.5202493827160524    0.4901014925373133
     0.9170338680926946    0.8565185185185200    0.4942059701492525
     0.9568199643493784    0.6052975308641990    0.4838179104477618
     0.9581604278074849    0.7739790123456771    0.4870298507462678
 
  0.00000000E+00  0.00000000E+00  0.00000000E+00
  0.00000000E+00  0.00000000E+00  0.00000000E+00
  0.00000000E+00  0.00000000E+00  0.00000000E+00
  0.00000000E+00  0.00000000E+00  0.00000000E+00
  0.00000000E+00  0.00000000E+00  0.00000000E+00
  0.00000000E+00  0.00000000E+00  0.00000000E+00
  0.00000000E+00  0.00000000E+00  0.00000000E+00
  0.00000000E+00  0.00000000E+00  0.00000000E+00
  0.00000000E+00  0.00000000E+00  0.00000000E+00
  0.00000000E+00  0.00000000E+00  0.00000000E+00
  0.00000000E+00  0.00000000E+00  0.00000000E+00
  0.00000000E+00  0.00000000E+00  0.00000000E+00
  0.00000000E+00  0.00000000E+00  0.00000000E+00
  0.00000000E+00  0.00000000E+00  0.00000000E+00
  0.00000000E+00  0.00000000E+00  0.00000000E+00
  0.00000000E+00  0.00000000E+00  0.00000000E+00
  0.00000000E+00  0.00000000E+00  0.00000000E+00
  0.00000000E+00  0.00000000E+00  0.00000000E+00
  0.00000000E+00  0.00000000E+00  0.00000000E+00
  0.00000000E+00  0.00000000E+00  0.00000000E+00
  0.00000000E+00  0.00000000E+00  0.00000000E+00
  0.00000000E+00  0.00000000E+00  0.00000000E+00
  0.00000000E+00  0.00000000E+00  0.00000000E+00
  0.00000000E+00  0.00000000E+00  0.00000000E+00
  0.00000000E+00  0.00000000E+00  0.00000000E+00
  0.00000000E+00  0.00000000E+00  0.00000000E+00
  0.00000000E+00  0.00000000E+00  0.00000000E+00
  0.00000000E+00  0.00000000E+00  0.00000000E+00
  0.00000000E+00  0.00000000E+00  0.00000000E+00
  0.00000000E+00  0.00000000E+00  0.00000000E+00
  0.00000000E+00  0.00000000E+00  0.00000000E+00
  0.00000000E+00  0.00000000E+00  0.00000000E+00
  0.00000000E+00  0.00000000E+00  0.00000000E+00
  0.00000000E+00  0.00000000E+00  0.00000000E+00
  0.00000000E+00  0.00000000E+00  0.00000000E+00
  0.00000000E+00  0.00000000E+00  0.00000000E+00
  0.00000000E+00  0.00000000E+00  0.00000000E+00
  0.00000000E+00  0.00000000E+00  0.00000000E+00
  0.00000000E+00  0.00000000E+00  0.00000000E+00
  0.00000000E+00  0.00000000E+00  0.00000000E+00
  0.00000000E+00  0.00000000E+00  0.00000000E+00
  0.00000000E+00  0.00000000E+00  0.00000000E+00
  0.00000000E+00  0.00000000E+00  0.00000000E+00
  0.00000000E+00  0.00000000E+00  0.00000000E+00
  0.00000000E+00  0.00000000E+00  0.00000000E+00
  0.00000000E+00  0.00000000E+00  0.00000000E+00
  0.00000000E+00  0.00000000E+00  0.00000000E+00
  0.00000000E+00  0.00000000E+00  0.00000000E+00
  0.00000000E+00  0.00000000E+00  0.00000000E+00
  0.00000000E+00  0.00000000E+00  0.00000000E+00
  0.00000000E+00  0.00000000E+00  0.00000000E+00
  0.00000000E+00  0.00000000E+00  0.00000000E+00
  0.00000000E+00  0.00000000E+00  0.00000000E+00
  0.00000000E+00  0.00000000E+00  0.00000000E+00
  0.00000000E+00  0.00000000E+00  0.00000000E+00
  0.00000000E+00  0.00000000E+00  0.00000000E+00
  0.00000000E+00  0.00000000E+00  0.00000000E+00
  0.00000000E+00  0.00000000E+00  0.00000000E+00
  0.00000000E+00  0.00000000E+00  0.00000000E+00
  0.00000000E+00  0.00000000E+00  0.00000000E+00
  0.00000000E+00  0.00000000E+00  0.00000000E+00
  0.00000000E+00  0.00000000E+00  0.00000000E+00
  0.00000000E+00  0.00000000E+00  0.00000000E+00
  0.00000000E+00  0.00000000E+00  0.00000000E+00
  0.00000000E+00  0.00000000E+00  0.00000000E+00
  0.00000000E+00  0.00000000E+00  0.00000000E+00
  0.00000000E+00  0.00000000E+00  0.00000000E+00
  0.00000000E+00  0.00000000E+00  0.00000000E+00
  0.00000000E+00  0.00000000E+00  0.00000000E+00
  0.00000000E+00  0.00000000E+00  0.00000000E+00
  0.00000000E+00  0.00000000E+00  0.00000000E+00
  0.00000000E+00  0.00000000E+00  0.00000000E+00
  0.00000000E+00  0.00000000E+00  0.00000000E+00
  0.00000000E+00  0.00000000E+00  0.00000000E+00
  0.00000000E+00  0.00000000E+00  0.00000000E+00
  0.00000000E+00  0.00000000E+00  0.00000000E+00
  0.00000000E+00  0.00000000E+00  0.00000000E+00
  0.00000000E+00  0.00000000E+00  0.00000000E+00
  0.00000000E+00  0.00000000E+00  0.00000000E+00
  0.00000000E+00  0.00000000E+00  0.00000000E+00
  0.00000000E+00  0.00000000E+00  0.00000000E+00
  0.00000000E+00  0.00000000E+00  0.00000000E+00
  0.00000000E+00  0.00000000E+00  0.00000000E+00
  0.00000000E+00  0.00000000E+00  0.00000000E+00
  0.00000000E+00  0.00000000E+00  0.00000000E+00
  0.00000000E+00  0.00000000E+00  0.00000000E+00
  0.00000000E+00  0.00000000E+00  0.00000000E+00
  0.00000000E+00  0.00000000E+00  0.00000000E+00
  0.00000000E+00  0.00000000E+00  0.00000000E+00
  0.00000000E+00  0.00000000E+00  0.00000000E+00
  0.00000000E+00  0.00000000E+00  0.00000000E+00
  0.00000000E+00  0.00000000E+00  0.00000000E+00
