 C 
 1.0000000000000000
    28.0500000000000007    0.0000000000000000    0.0000000000000000
     0.0000000000000000    8.0999999999999996    0.0000000000000000
     0.0000000000000000    0.0000000000000000   33.5000000000000000
 C  
  92
Cartesian
  0.1327700000000000  0.8400069999999999 15.1699000000000002
  0.1599600000000000  2.2166399999999999 15.1417000000000002
  1.3349400000000000  0.1733050000000000 15.2950999999999997
  1.3783700000000001  2.9124900000000000 15.2522000000000002
  2.6252800000000001  0.8027840000000001 15.1289999999999996
  2.6252000000000000  2.1937600000000002 15.1460000000000008
  3.8551799999999998  0.1702650000000000 15.3236000000000008
  3.8705699999999998  2.8546000000000000 15.2774999999999999
  5.1445600000000002  0.8154290000000000 15.3100000000000005
  5.1460200000000000  2.1991000000000001 15.2440999999999995
  6.3895200000000001  0.1200460000000000 15.5373000000000001
  6.3805199999999997  2.9211900000000002 15.5894999999999992
  7.5584499999999997  0.8099510000000000 15.7896000000000001
  7.5635599999999998  2.1806800000000002 15.9459999999999997
  8.8145699999999998  0.1789650000000000 16.0958000000000006
  8.6215299999999999  2.8397600000000001 16.5275999999999996
  9.9604300000000006  0.8163220000000000 16.5076000000000001
  9.8415400000000002  2.1687599999999998 16.8260000000000005
 11.1500000000000004  0.1174360000000000 16.8679999999999986
 11.0054999999999996  2.8513600000000001 17.2943999999999996
 12.3263999999999996  0.8272290000000000 17.1671000000000014
 12.2612000000000005  2.2050500000000000 17.3192999999999984
 13.5425000000000004  0.1606340000000000 17.4878000000000000
 13.4345999999999997  2.8754300000000002 17.6641000000000012
 14.7246000000000006  0.8642690000000000 17.6814000000000000
 14.7431999999999999  2.2159900000000001 17.7828000000000017
 15.9482999999999997  0.1797620000000000 17.9619999999999997
 15.9008000000000003  2.8995099999999998 18.0772000000000013
 17.1354000000000006  0.8667899999999999 17.9863000000000000
 17.1095000000000006  2.2240199999999999 18.0174999999999983
 18.3712000000000018  0.2072210000000000 17.9634999999999998
 18.3918999999999997  2.8435500000000000 17.8438000000000017
 19.5588000000000015  0.8418440000000000 17.5712000000000010
 19.5848000000000013  2.2521900000000001 17.4773999999999994
 20.7946999999999989  0.1823230000000000 17.3475000000000001
 20.8097999999999992  2.9023400000000001 17.2552999999999983
 21.9826000000000015  0.8569940000000000 16.9751000000000012
 22.0350999999999999  2.2182300000000001 16.9329000000000001
 23.2090999999999994  0.1857570000000000 16.8067999999999991
 23.2591000000000001  2.9446599999999998 16.7727000000000004
 24.3958000000000013  0.8545790000000000 16.3937999999999988
 24.4303999999999988  2.1969699999999999 16.4158000000000008
 25.6102999999999987  0.1336820000000000 16.1131999999999991
 25.6277000000000008  2.8917400000000000 16.1216000000000008
 26.7251000000000012  0.8556440000000000 15.6420999999999992
 26.6807000000000016  2.1998000000000002 15.5812000000000008
  0.2211190000000000  4.9115099999999998 15.9115000000000002
  0.2411650000000000  6.3242799999999999 15.8933999999999997
  1.3958600000000001  4.1967499999999998 15.7138000000000009
  1.4078900000000001  6.9906100000000002 15.7026000000000003
  2.5999599999999998  4.9120600000000003 15.7372999999999994
  2.6388600000000002  6.2734699999999997 15.7036999999999995
  3.7856100000000001  4.1925100000000004 15.5961999999999996
  3.8903099999999999  6.9600900000000001 15.6898999999999997
  4.9548300000000003  4.8839600000000001 15.8434000000000008
  5.0920600000000000  6.2441199999999997 15.6663999999999994
  6.2725000000000000  4.2160700000000002 15.8211999999999993
  6.3411700000000000  6.8786899999999997 15.6506000000000007
  7.4183000000000003  4.8955000000000002 16.2893000000000008
  7.4986100000000002  6.2511999999999999 16.1245000000000012
  8.6330200000000001  4.2388899999999996 16.6213000000000015
  8.7032299999999996  6.9220699999999997 16.3299999999999983
  9.7639499999999995  4.8858800000000002 17.1049000000000007
  9.8683099999999992  6.2313799999999997 16.8320000000000007
 11.0084000000000000  4.2048300000000003 17.4400000000000013
 11.0403000000000002  6.8453999999999997 17.1205999999999996
 12.2205999999999992  4.8636600000000003 17.7902999999999984
 12.1715000000000000  6.2397400000000003 17.6418999999999997
 13.4055000000000000  4.1749000000000001 18.0142999999999986
 13.4103999999999992  6.9012300000000000 17.8630999999999993
 14.6637000000000004  4.8653300000000002 18.2303999999999995
 14.6699999999999999  6.2720399999999996 18.1193999999999988
 15.9248999999999992  4.2594099999999999 18.3505000000000003
 15.9131000000000000  6.9563800000000002 18.1369000000000007
 17.1820999999999984  4.9391699999999998 18.3685000000000009
 17.1795000000000009  6.2930500000000000 18.3014000000000010
 18.4004000000000012  4.2331500000000002 18.0198000000000000
 18.4207000000000001  6.9624800000000002 18.1204000000000001
 19.5997999999999983  4.8858899999999998 17.8227000000000011
 19.6192999999999991  6.2766400000000004 17.9795000000000016
 20.8597999999999999  4.2374999999999998 17.5543000000000013
 20.8665999999999983  6.9551699999999999 17.6761000000000017
 22.1289000000000016  4.9229300000000000 17.4817000000000000
 22.0975999999999999  6.2710100000000004 17.4954000000000001
 23.3050999999999995  4.2674000000000003 17.1859000000000002
 23.2800000000000011  6.8930800000000003 17.1115999999999993
 24.5543000000000013  4.8690699999999998 16.9468999999999994
 24.5581999999999994  6.2099200000000003 16.8608000000000011
 25.7192000000000007  4.2140199999999997 16.4183999999999983
 25.7227999999999994  6.9378000000000002 16.5559000000000012
 26.8387999999999991  4.9029100000000003 16.2078999999999986
 26.8764000000000003  6.2692300000000003 16.3155000000000001
