 C                                      
    1.000000000000000     
    28.0500000000000007    0.0000000000000000    0.0000000000000000
     0.0000000000000000    8.0999999999999996    0.0000000000000000
     0.0000000000000000    0.0000000000000000   33.5000000000000000
   C 
    92
Direct
     0.0114030659536510    0.1020346913580212    0.5390626865671635
     0.0076067736185408    0.2726716049382745    0.5312119402985047
     0.0531204991087364    0.0216527160493811    0.5305492537313441
     0.0478285204991096    0.3591259259259232    0.5185253731343309
     0.0947543672014248    0.1109687654320979    0.5183074626865647
     0.0917440285205018    0.2749827160493794    0.5127074626865635
     0.1377971479500886    0.0249493827160521    0.5108656716417883
     0.1334955436720122    0.3587864197530877    0.4940208955223895
     0.1778873440285196    0.1115223456790133    0.4956388059701524
     0.1755732620320885    0.2729456790123450    0.4837014925373140
     0.2216288770053509    0.0318017283950596    0.4817373134328378
     0.2175347593582870    0.3605098765432118    0.4732746268656740
     0.2641729055258466    0.1097865432098786    0.4700358208955251
     0.2621885918003599    0.2793012345679031    0.4658298507462675
     0.3072755793226349    0.0289392592592606    0.4623791044776127
     0.3059358288770042    0.3536654320987651    0.4597701492537283
     0.3508541889483041    0.1012797530864162    0.4518149253731352
     0.3512709447415361    0.2698506172839501    0.4530507462686586
     0.3956042780748632    0.0226375308641948    0.4472835820895540
     0.3956898395721922    0.3520395061728365    0.4531432835820866
     0.4421532976827081    0.0995823456790106    0.4460626865671671
     0.4405240641711217    0.2659827160493862    0.4503014925373137
     0.4870303030303020    0.0183434567901202    0.4527313432835811
     0.4862923351158628    0.3511456790123475    0.4567432835820924
     0.5320499108734396    0.0993766666666644    0.4570447761194032
     0.5320427807486610    0.2675617283950587    0.4577671641791028
     0.5748342245989306    0.0163571604938255    0.4716358208955214
     0.5759322638146145    0.3487728395061751    0.4683164179104509
     0.6189590017825282    0.1002864197530897    0.4786208955223898
     0.6210017825311951    0.2747061728395082    0.4767432835820884
     0.6564848484848511    0.0182907407407384    0.4988328358208989
     0.6592905525846717    0.3515061728395068    0.4948119402985043
     0.7007415329768278    0.0955402469135791    0.5070716417910432
     0.7009732620320861    0.2645851851851830    0.5072119402985038
     0.7411301247771860    0.0110947777777781    0.5271880597014942
     0.7411978609625649    0.3463419753086399    0.5228925373134317
     0.7829946524064155    0.0987076543209895    0.5340656716417911
     0.7853511586452768    0.2652135802469147    0.5307253731343309
     0.8255579322638127    0.0216923456790141    0.5456567164179091
     0.8253975044563262    0.3544382716049412    0.5390597014925405
     0.8687950089126559    0.1046501234567927    0.5494507462686542
     0.8699536541889472    0.2683432098765408    0.5414388059701523
     0.9152905525846720    0.0271560493827181    0.5521313432835839
     0.9124527629233512    0.3580901234567904    0.5403343283582061
     0.9575401069518747    0.1082707407407426    0.5438417910447768
     0.9571016042780727    0.2777148148148143    0.5387820895522353
     0.0075737254901966    0.6155814814814846    0.5325611940298529
     0.0093332263814645    0.7811703703703685    0.5401970149253756
     0.0481522281639926    0.5295222222222193    0.5180298507462666
     0.0541393939393942    0.8521123456790107    0.5346238805970174
     0.0912641711229938    0.6082851851851885    0.5075462686567178
     0.0952916221033888    0.7695049382716022    0.5179164179104490
     0.1322292335115876    0.5283987654321010    0.4955283582089578
     0.1378516934046345    0.8557641975308670    0.5078000000000031
     0.1769925133689867    0.6131469135802448    0.4880059701492527
     0.1794755793226415    0.7804827160493844    0.4946746268656739
     0.2178741532976858    0.5321580246913555    0.4734686567164204
     0.2232819964349346    0.8631641975308639    0.4853791044776088
     0.2628905525846719    0.6091481481481509    0.4700358208955251
     0.2644499108734379    0.7790679012345691    0.4763223880596996
     0.3045229946524088    0.5241395061728369    0.4669820895522392
     0.3086787878787902    0.8611185185185164    0.4654835820895542
     0.3516634581105151    0.6099074074074053    0.4653820895522358
     0.3531568627450952    0.7774753086419750    0.4639432835820898
     0.3957326203208567    0.5222209876543218    0.4605701492537335
     0.3987165775401067    0.8522543209876545    0.4543970149253767
     0.4396363636363603    0.6007913580246935    0.4643104477611928
     0.4409126559714807    0.7701209876543231    0.4666358208955259
     0.4840748663101593    0.5189024691358028    0.4651313432835806
     0.4846666666666692    0.8546617283950653    0.4644417910447771
     0.5259821746880604    0.5992790123456757    0.4734865671641799
     0.5269376114082007    0.7730716049382735    0.4716149253731317
     0.5715115864527647    0.5152654320987651    0.4781880597014947
     0.5700142602495575    0.8508987654320990    0.4802417910447758
     0.6110089126559686    0.5989148148148118    0.4929343283582099
     0.6115721925133712    0.7656098765432091    0.4949880597014911
     0.6543778966131910    0.5125740740740738    0.5067850746268689
     0.6546488413547209    0.8508580246913553    0.5074417910447764
     0.6965026737967932    0.5938148148148130    0.5214298507462658
     0.6937397504456300    0.7650123456790112    0.5239850746268644
     0.7384705882352947    0.5081604938271624    0.5324507462686583
     0.7384527629233517    0.8451987654321016    0.5336716417910452
     0.7813654188948291    0.5979703703703692    0.5423373134328386
     0.7809625668449200    0.7624506172839531    0.5445791044776129
     0.8256898395721919    0.5208604938271577    0.5432477611940314
     0.8260356506238864    0.8512456790123437    0.5484567164179097
     0.8699536541889472    0.6075407407407383    0.5478417910447746
     0.8701497326203196    0.7731469135802485    0.5520119402985060
     0.9137468805704074    0.5280358024691338    0.5425402985074612
     0.9145418894830684    0.8615765432098783    0.5539104477611971
     0.9564491978609624    0.6145814814814798    0.5401104477611938
     0.9585525846702296    0.7826209876543189    0.5460059701492526
 
  0.00000000E+00  0.00000000E+00  0.00000000E+00
  0.00000000E+00  0.00000000E+00  0.00000000E+00
  0.00000000E+00  0.00000000E+00  0.00000000E+00
  0.00000000E+00  0.00000000E+00  0.00000000E+00
  0.00000000E+00  0.00000000E+00  0.00000000E+00
  0.00000000E+00  0.00000000E+00  0.00000000E+00
  0.00000000E+00  0.00000000E+00  0.00000000E+00
  0.00000000E+00  0.00000000E+00  0.00000000E+00
  0.00000000E+00  0.00000000E+00  0.00000000E+00
  0.00000000E+00  0.00000000E+00  0.00000000E+00
  0.00000000E+00  0.00000000E+00  0.00000000E+00
  0.00000000E+00  0.00000000E+00  0.00000000E+00
  0.00000000E+00  0.00000000E+00  0.00000000E+00
  0.00000000E+00  0.00000000E+00  0.00000000E+00
  0.00000000E+00  0.00000000E+00  0.00000000E+00
  0.00000000E+00  0.00000000E+00  0.00000000E+00
  0.00000000E+00  0.00000000E+00  0.00000000E+00
  0.00000000E+00  0.00000000E+00  0.00000000E+00
  0.00000000E+00  0.00000000E+00  0.00000000E+00
  0.00000000E+00  0.00000000E+00  0.00000000E+00
  0.00000000E+00  0.00000000E+00  0.00000000E+00
  0.00000000E+00  0.00000000E+00  0.00000000E+00
  0.00000000E+00  0.00000000E+00  0.00000000E+00
  0.00000000E+00  0.00000000E+00  0.00000000E+00
  0.00000000E+00  0.00000000E+00  0.00000000E+00
  0.00000000E+00  0.00000000E+00  0.00000000E+00
  0.00000000E+00  0.00000000E+00  0.00000000E+00
  0.00000000E+00  0.00000000E+00  0.00000000E+00
  0.00000000E+00  0.00000000E+00  0.00000000E+00
  0.00000000E+00  0.00000000E+00  0.00000000E+00
  0.00000000E+00  0.00000000E+00  0.00000000E+00
  0.00000000E+00  0.00000000E+00  0.00000000E+00
  0.00000000E+00  0.00000000E+00  0.00000000E+00
  0.00000000E+00  0.00000000E+00  0.00000000E+00
  0.00000000E+00  0.00000000E+00  0.00000000E+00
  0.00000000E+00  0.00000000E+00  0.00000000E+00
  0.00000000E+00  0.00000000E+00  0.00000000E+00
  0.00000000E+00  0.00000000E+00  0.00000000E+00
  0.00000000E+00  0.00000000E+00  0.00000000E+00
  0.00000000E+00  0.00000000E+00  0.00000000E+00
  0.00000000E+00  0.00000000E+00  0.00000000E+00
  0.00000000E+00  0.00000000E+00  0.00000000E+00
  0.00000000E+00  0.00000000E+00  0.00000000E+00
  0.00000000E+00  0.00000000E+00  0.00000000E+00
  0.00000000E+00  0.00000000E+00  0.00000000E+00
  0.00000000E+00  0.00000000E+00  0.00000000E+00
  0.00000000E+00  0.00000000E+00  0.00000000E+00
  0.00000000E+00  0.00000000E+00  0.00000000E+00
  0.00000000E+00  0.00000000E+00  0.00000000E+00
  0.00000000E+00  0.00000000E+00  0.00000000E+00
  0.00000000E+00  0.00000000E+00  0.00000000E+00
  0.00000000E+00  0.00000000E+00  0.00000000E+00
  0.00000000E+00  0.00000000E+00  0.00000000E+00
  0.00000000E+00  0.00000000E+00  0.00000000E+00
  0.00000000E+00  0.00000000E+00  0.00000000E+00
  0.00000000E+00  0.00000000E+00  0.00000000E+00
  0.00000000E+00  0.00000000E+00  0.00000000E+00
  0.00000000E+00  0.00000000E+00  0.00000000E+00
  0.00000000E+00  0.00000000E+00  0.00000000E+00
  0.00000000E+00  0.00000000E+00  0.00000000E+00
  0.00000000E+00  0.00000000E+00  0.00000000E+00
  0.00000000E+00  0.00000000E+00  0.00000000E+00
  0.00000000E+00  0.00000000E+00  0.00000000E+00
  0.00000000E+00  0.00000000E+00  0.00000000E+00
  0.00000000E+00  0.00000000E+00  0.00000000E+00
  0.00000000E+00  0.00000000E+00  0.00000000E+00
  0.00000000E+00  0.00000000E+00  0.00000000E+00
  0.00000000E+00  0.00000000E+00  0.00000000E+00
  0.00000000E+00  0.00000000E+00  0.00000000E+00
  0.00000000E+00  0.00000000E+00  0.00000000E+00
  0.00000000E+00  0.00000000E+00  0.00000000E+00
  0.00000000E+00  0.00000000E+00  0.00000000E+00
  0.00000000E+00  0.00000000E+00  0.00000000E+00
  0.00000000E+00  0.00000000E+00  0.00000000E+00
  0.00000000E+00  0.00000000E+00  0.00000000E+00
  0.00000000E+00  0.00000000E+00  0.00000000E+00
  0.00000000E+00  0.00000000E+00  0.00000000E+00
  0.00000000E+00  0.00000000E+00  0.00000000E+00
  0.00000000E+00  0.00000000E+00  0.00000000E+00
  0.00000000E+00  0.00000000E+00  0.00000000E+00
  0.00000000E+00  0.00000000E+00  0.00000000E+00
  0.00000000E+00  0.00000000E+00  0.00000000E+00
  0.00000000E+00  0.00000000E+00  0.00000000E+00
  0.00000000E+00  0.00000000E+00  0.00000000E+00
  0.00000000E+00  0.00000000E+00  0.00000000E+00
  0.00000000E+00  0.00000000E+00  0.00000000E+00
  0.00000000E+00  0.00000000E+00  0.00000000E+00
  0.00000000E+00  0.00000000E+00  0.00000000E+00
  0.00000000E+00  0.00000000E+00  0.00000000E+00
  0.00000000E+00  0.00000000E+00  0.00000000E+00
  0.00000000E+00  0.00000000E+00  0.00000000E+00
  0.00000000E+00  0.00000000E+00  0.00000000E+00
