 C 
 1.0000000000000000
    28.0500000000000007    0.0000000000000000    0.0000000000000000
     0.0000000000000000    8.0999999999999996    0.0000000000000000
     0.0000000000000000    0.0000000000000000   33.5000000000000000
 C  
  92
Cartesian
  0.3198560000000000  0.8264810000000000 18.0585999999999984
  0.2133700000000000  2.2086399999999999 17.7956000000000003
  1.4900300000000000  0.1753870000000000 17.7733999999999988
  1.3415900000000001  2.9089200000000002 17.3705999999999996
  2.6578599999999999  0.8988470000000000 17.3632999999999988
  2.5734200000000000  2.2273600000000000 17.1756999999999991
  3.8652099999999998  0.2020900000000000 17.1140000000000008
  3.7445499999999998  2.9061699999999999 16.5497000000000014
  4.9897400000000003  0.9033310000000000 16.6038999999999994
  4.9248300000000000  2.2108599999999998 16.2040000000000006
  6.2166899999999998  0.2575940000000000 16.1382000000000012
  6.1018499999999998  2.9201299999999999 15.8546999999999993
  7.4100500000000000  0.8892710000000000 15.7462000000000000
  7.3543900000000004  2.2623400000000000 15.6052999999999997
  8.6190800000000003  0.2344080000000000 15.4896999999999991
  8.5815000000000001  2.8646900000000000 15.4023000000000003
  9.8414599999999997  0.8203660000000000 15.1357999999999997
  9.8531499999999994  2.1857899999999999 15.1771999999999991
 11.0967000000000002  0.1833640000000000 14.9840000000000000
 11.0991000000000000  2.8515199999999998 15.1803000000000008
 12.4024000000000001  0.8066170000000000 14.9430999999999994
 12.3567000000000000  2.1544599999999998 15.0851000000000006
 13.6611999999999991  0.1485820000000000 15.1664999999999992
 13.6404999999999994  2.8442799999999999 15.3009000000000004
 14.9239999999999995  0.8049510000000000 15.3109999999999999
 14.9238000000000000  2.1672500000000001 15.3352000000000004
 16.1240999999999985  0.1324930000000000 15.7997999999999994
 16.1549000000000014  2.8250600000000001 15.6885999999999992
 17.3617999999999988  0.8123200000000000 16.0337999999999994
 17.4191000000000003  2.2251200000000000 15.9709000000000003
 18.4144000000000005  0.1481550000000000 16.7108999999999988
 18.4930999999999983  2.8472000000000000 16.5762000000000000
 19.6557999999999993  0.7738760000000000 16.9868999999999986
 19.6622999999999983  2.1431399999999998 16.9915999999999983
 20.7886999999999986  0.0898677000000000 17.6607999999999983
 20.7906000000000013  2.8053699999999999 17.5168999999999997
 21.9630000000000010  0.7995320000000000 17.8912000000000013
 22.0290999999999997  2.1482299999999999 17.7792999999999992
 23.1569000000000003  0.1757080000000000 18.2794999999999987
 23.1524000000000001  2.8709500000000001 18.0584999999999987
 24.3697000000000017  0.8476660000000000 18.4066000000000010
 24.4022000000000006  2.1735799999999998 18.1382000000000012
 25.6738999999999997  0.2199640000000000 18.4964000000000013
 25.5943000000000005  2.9005299999999998 18.1011999999999986
 26.8590000000000018  0.8769930000000000 18.2186999999999983
 26.8466999999999985  2.2494900000000002 18.0491999999999990
  0.2124430000000000  4.9862099999999998 17.8408000000000015
  0.2617970000000000  6.3274800000000004 18.0965999999999987
  1.3506700000000000  4.2891300000000001 17.3539999999999992
  1.5186100000000000  6.9021100000000004 17.9099000000000004
  2.5599599999999998  4.9271099999999999 17.0028000000000006
  2.6729300000000000  6.2329900000000000 17.3502000000000010
  3.7090299999999998  4.2800300000000000 16.6002000000000010
  3.8667400000000001  6.9316899999999997 17.0112999999999985
  4.9646400000000002  4.9664900000000003 16.3481999999999985
  5.0342900000000004  6.3219099999999999 16.5716000000000001
  6.1113700000000000  4.3104800000000001 15.8612000000000002
  6.2630600000000003  6.9916299999999998 16.2602000000000011
  7.3740800000000002  4.9340999999999999 15.7462000000000000
  7.4178199999999999  6.3104500000000003 15.9567999999999994
  8.5418699999999994  4.2455299999999996 15.6439000000000004
  8.6584400000000006  6.9750600000000000 15.5937000000000001
  9.8641600000000000  4.9402499999999998 15.5902999999999992
  9.9060500000000005  6.2975500000000002 15.5420999999999996
 11.1003000000000007  4.2299899999999999 15.4291000000000000
 11.1839999999999993  6.9032600000000004 15.2223000000000006
 12.3317999999999994  4.8664100000000001 15.5543999999999993
 12.3675999999999995  6.2379800000000003 15.6323000000000008
 13.5783000000000005  4.2031099999999997 15.5818999999999992
 13.5949000000000009  6.9227600000000002 15.5587999999999997
 14.7538000000000000  4.8541600000000003 15.8618000000000006
 14.7805999999999997  6.2618799999999997 15.7990999999999993
 16.0308999999999990  4.1736500000000003 16.0193000000000012
 15.9888999999999992  6.8922800000000004 16.0881000000000007
 17.1387999999999998  4.8512100000000000 16.5133000000000010
 17.1545999999999985  6.2014399999999998 16.5821000000000005
 18.3552999999999997  4.1518499999999996 16.9772999999999996
 18.3628999999999998  6.8919499999999996 16.9993000000000016
 19.5368999999999993  4.8098999999999998 17.4679000000000002
 19.4593999999999987  6.1966000000000001 17.5534999999999997
 20.7140999999999984  4.1161000000000003 17.8370999999999995
 20.7135999999999996  6.8461100000000004 17.8780000000000001
 21.9173000000000009  4.8435600000000001 18.1682999999999986
 21.9059999999999988  6.1758499999999996 18.2434000000000012
 23.1605999999999987  4.2189699999999997 18.1987999999999985
 23.1703000000000010  6.8950899999999997 18.3733000000000004
 24.4022000000000006  4.9210799999999999 18.3526999999999987
 24.4076999999999984  6.2624899999999997 18.4923999999999999
 25.6306000000000012  4.2770900000000003 18.1751000000000005
 25.6528999999999989  6.9787699999999999 18.5560000000000009
 26.8283999999999985  4.9781100000000000 18.0936999999999983
 26.8873999999999995  6.3392299999999997 18.2911999999999999
