 C                                      
    1.000000000000000     
    28.0500000000000007    0.0000000000000000    0.0000000000000000
     0.0000000000000000    8.0999999999999996    0.0000000000000000
     0.0000000000000000    0.0000000000000000   33.5000000000000000
   C 
    92
Direct
     0.0035126203208549    0.1046204938271629    0.5102776119402961
     0.0061133689839608    0.2741765432098759    0.5037014925373100
     0.0438509803921576    0.0184662962962960    0.5227701492537307
     0.0479565062388616    0.3537567901234553    0.5105940298507434
     0.0880905525846671    0.0993459259259240    0.5322537313432818
     0.0904014260249539    0.2696370370370360    0.5259731343283605
     0.1318021390374327    0.0191946913580239    0.5370716417910444
     0.1354470588235301    0.3460296296296264    0.5283999999999978
     0.1768755793226404    0.1015513580246932    0.5416686567164177
     0.1793426024955451    0.2706962962962933    0.5372119402985049
     0.2218135472370761    0.0185560493827168    0.5441014925373153
     0.2228395721925125    0.3524234567901203    0.5384208955223855
     0.2657768270944771    0.0973503703703713    0.5478507462686579
     0.2664188948306574    0.2678580246913569    0.5459134328358175
     0.3126798573975051    0.0175235802469160    0.5445701492537296
     0.3113069518716571    0.3487703703703673    0.5406059701492509
     0.3551443850267404    0.0985270370370372    0.5402686567164210
     0.3552117647058850    0.2720271604938276    0.5388537313432806
     0.4007950089126595    0.0204830864197518    0.5348597014925360
     0.3999358288770054    0.3524691358024725    0.5303194029850715
     0.4456827094474178    0.1075576543209849    0.5269283582089557
     0.4435508021390362    0.2762987654321023    0.5216268656716423
     0.4868306595365439    0.0277920987654312    0.5154059701492528
     0.4837825311942936    0.3534061728395059    0.5045492537313407
     0.5296149732620350    0.1101066666666668    0.5036358208955249
     0.5273119429590025    0.2731950617283943    0.4969791044776102
     0.5722139037433180    0.0202980246913569    0.4916149253731348
     0.5695436720142624    0.3589135802469130    0.4794597014925372
     0.6137718360071318    0.1014662962962944    0.4826149253731344
     0.6109376114081968    0.2759012345679039    0.4705761194029847
     0.6561140819964351    0.0231069135802500    0.4761940298507454
     0.6518823529411790    0.3505234567901212    0.4596029850746248
     0.6982495543672016    0.1087440740740746    0.4668298507462652
     0.6968770053475950    0.2696790123456765    0.4583373134328355
     0.7408734402852062    0.0212979012345684    0.4631014925373123
     0.7395614973261999    0.3503592592592568    0.4498298507462692
     0.7835115864527609    0.1099933333333354    0.4613641791044785
     0.7861996434937595    0.2702765432098744    0.4536865671641763
     0.8276577540106942    0.0225451851851872    0.4679611940298543
     0.8298894830659549    0.3563345679012357    0.4554417910447768
     0.8718217468805705    0.1092777777777769    0.4735970149253745
     0.8728805704099827    0.2828555555555567    0.4692865671641826
     0.9113048128342243    0.0307116049382685    0.4890567164179132
     0.9173903743315535    0.3588000000000022    0.4770119402985102
     0.9534652406417123    0.1113608641975290    0.4987402985074638
     0.9553048128342212    0.2807493827160528    0.4931164179104499
     0.0049238502673816    0.6061555555555529    0.5003253731343307
     0.0052348306595391    0.7776530864197539    0.5065253731343304
     0.0486260249554391    0.5191987654321011    0.5063761194029865
     0.0469500891265611    0.8540913580246894    0.5171343283582104
     0.0921037433155050    0.5992037037037008    0.5129343283582060
     0.0906281639928679    0.7677333333333323    0.5174119402985085
     0.1352163992869890    0.5155061728395083    0.5202388059701519
     0.1347689839572226    0.8539123456790136    0.5270208955223907
     0.1783853832442048    0.6002222222222215    0.5207641791044750
     0.1786741532976848    0.7748148148148175    0.5246686567164147
     0.2232798573975074    0.5144506172839485    0.5265194029850733
     0.2219536541889511    0.8524913580246931    0.5354746268656712
     0.2671130124777150    0.5976925925925940    0.5267134328358196
     0.2671782531194324    0.7683086419753096    0.5316805970149261
     0.3098459893048116    0.5222209876543218    0.5321134328358212
     0.3119932263814604    0.8495197530864189    0.5384686567164181
     0.3547597147950086    0.6064839506172817    0.5269253731343255
     0.3545522281639961    0.7731740740740776    0.5281820895522387
     0.3990802139037442    0.5228654320987687    0.5246358208955257
     0.3995828877005323    0.8552481481481493    0.5244626865671620
     0.4405846702317291    0.6075469135802436    0.5134388059701465
     0.4423315508021375    0.7747999999999990    0.5169910447761197
     0.4815187165775399    0.5197703703703738    0.5020179104477620
     0.4859607843137255    0.8541641975308636    0.5108746268656716
     0.5240000000000009    0.6067506172839501    0.4899910447761187
     0.5267629233511570    0.7744456790123451    0.4968447761194028
     0.5667379679144418    0.5258012345679006    0.4780686567164167
     0.5695828877005340    0.8511395061728422    0.4892955223880620
     0.6098573975044559    0.6032481481481469    0.4672208955223880
     0.6110980392156833    0.7711592592592567    0.4738119402985106
     0.6511016042780753    0.5169037037037043    0.4588089552238799
     0.6549447415329794    0.8569160493827184    0.4684149253731320
     0.6952834224598945    0.6006197530864199    0.4507611940298517
     0.6959393939393905    0.7705555555555534    0.4570985074626890
     0.7398217468805726    0.5202271604938247    0.4495999999999967
     0.7403850267379681    0.8509814814814831    0.4604895522388048
     0.7838395721925124    0.6027530864197530    0.4554447761193998
     0.7849055258467033    0.7722395061728378    0.4597313432835790
     0.8283992869875192    0.5284567901234567    0.4550119402985047
     0.8276791443850300    0.8587444444444472    0.4643492537313421
     0.8743672014260255    0.6112098765432066    0.4611970149253750
     0.8729590017825331    0.7762555555555579    0.4715850746268657
     0.9167094474153288    0.5253777777777771    0.4718447761194042
     0.9139358288770083    0.8599641975308643    0.4849641791044803
     0.9574153297682741    0.6073567901234540    0.4872268656716443
     0.9551622103386777    0.7776456790123447    0.4940895522388047
 
  0.00000000E+00  0.00000000E+00  0.00000000E+00
  0.00000000E+00  0.00000000E+00  0.00000000E+00
  0.00000000E+00  0.00000000E+00  0.00000000E+00
  0.00000000E+00  0.00000000E+00  0.00000000E+00
  0.00000000E+00  0.00000000E+00  0.00000000E+00
  0.00000000E+00  0.00000000E+00  0.00000000E+00
  0.00000000E+00  0.00000000E+00  0.00000000E+00
  0.00000000E+00  0.00000000E+00  0.00000000E+00
  0.00000000E+00  0.00000000E+00  0.00000000E+00
  0.00000000E+00  0.00000000E+00  0.00000000E+00
  0.00000000E+00  0.00000000E+00  0.00000000E+00
  0.00000000E+00  0.00000000E+00  0.00000000E+00
  0.00000000E+00  0.00000000E+00  0.00000000E+00
  0.00000000E+00  0.00000000E+00  0.00000000E+00
  0.00000000E+00  0.00000000E+00  0.00000000E+00
  0.00000000E+00  0.00000000E+00  0.00000000E+00
  0.00000000E+00  0.00000000E+00  0.00000000E+00
  0.00000000E+00  0.00000000E+00  0.00000000E+00
  0.00000000E+00  0.00000000E+00  0.00000000E+00
  0.00000000E+00  0.00000000E+00  0.00000000E+00
  0.00000000E+00  0.00000000E+00  0.00000000E+00
  0.00000000E+00  0.00000000E+00  0.00000000E+00
  0.00000000E+00  0.00000000E+00  0.00000000E+00
  0.00000000E+00  0.00000000E+00  0.00000000E+00
  0.00000000E+00  0.00000000E+00  0.00000000E+00
  0.00000000E+00  0.00000000E+00  0.00000000E+00
  0.00000000E+00  0.00000000E+00  0.00000000E+00
  0.00000000E+00  0.00000000E+00  0.00000000E+00
  0.00000000E+00  0.00000000E+00  0.00000000E+00
  0.00000000E+00  0.00000000E+00  0.00000000E+00
  0.00000000E+00  0.00000000E+00  0.00000000E+00
  0.00000000E+00  0.00000000E+00  0.00000000E+00
  0.00000000E+00  0.00000000E+00  0.00000000E+00
  0.00000000E+00  0.00000000E+00  0.00000000E+00
  0.00000000E+00  0.00000000E+00  0.00000000E+00
  0.00000000E+00  0.00000000E+00  0.00000000E+00
  0.00000000E+00  0.00000000E+00  0.00000000E+00
  0.00000000E+00  0.00000000E+00  0.00000000E+00
  0.00000000E+00  0.00000000E+00  0.00000000E+00
  0.00000000E+00  0.00000000E+00  0.00000000E+00
  0.00000000E+00  0.00000000E+00  0.00000000E+00
  0.00000000E+00  0.00000000E+00  0.00000000E+00
  0.00000000E+00  0.00000000E+00  0.00000000E+00
  0.00000000E+00  0.00000000E+00  0.00000000E+00
  0.00000000E+00  0.00000000E+00  0.00000000E+00
  0.00000000E+00  0.00000000E+00  0.00000000E+00
  0.00000000E+00  0.00000000E+00  0.00000000E+00
  0.00000000E+00  0.00000000E+00  0.00000000E+00
  0.00000000E+00  0.00000000E+00  0.00000000E+00
  0.00000000E+00  0.00000000E+00  0.00000000E+00
  0.00000000E+00  0.00000000E+00  0.00000000E+00
  0.00000000E+00  0.00000000E+00  0.00000000E+00
  0.00000000E+00  0.00000000E+00  0.00000000E+00
  0.00000000E+00  0.00000000E+00  0.00000000E+00
  0.00000000E+00  0.00000000E+00  0.00000000E+00
  0.00000000E+00  0.00000000E+00  0.00000000E+00
  0.00000000E+00  0.00000000E+00  0.00000000E+00
  0.00000000E+00  0.00000000E+00  0.00000000E+00
  0.00000000E+00  0.00000000E+00  0.00000000E+00
  0.00000000E+00  0.00000000E+00  0.00000000E+00
  0.00000000E+00  0.00000000E+00  0.00000000E+00
  0.00000000E+00  0.00000000E+00  0.00000000E+00
  0.00000000E+00  0.00000000E+00  0.00000000E+00
  0.00000000E+00  0.00000000E+00  0.00000000E+00
  0.00000000E+00  0.00000000E+00  0.00000000E+00
  0.00000000E+00  0.00000000E+00  0.00000000E+00
  0.00000000E+00  0.00000000E+00  0.00000000E+00
  0.00000000E+00  0.00000000E+00  0.00000000E+00
  0.00000000E+00  0.00000000E+00  0.00000000E+00
  0.00000000E+00  0.00000000E+00  0.00000000E+00
  0.00000000E+00  0.00000000E+00  0.00000000E+00
  0.00000000E+00  0.00000000E+00  0.00000000E+00
  0.00000000E+00  0.00000000E+00  0.00000000E+00
  0.00000000E+00  0.00000000E+00  0.00000000E+00
  0.00000000E+00  0.00000000E+00  0.00000000E+00
  0.00000000E+00  0.00000000E+00  0.00000000E+00
  0.00000000E+00  0.00000000E+00  0.00000000E+00
  0.00000000E+00  0.00000000E+00  0.00000000E+00
  0.00000000E+00  0.00000000E+00  0.00000000E+00
  0.00000000E+00  0.00000000E+00  0.00000000E+00
  0.00000000E+00  0.00000000E+00  0.00000000E+00
  0.00000000E+00  0.00000000E+00  0.00000000E+00
  0.00000000E+00  0.00000000E+00  0.00000000E+00
  0.00000000E+00  0.00000000E+00  0.00000000E+00
  0.00000000E+00  0.00000000E+00  0.00000000E+00
  0.00000000E+00  0.00000000E+00  0.00000000E+00
  0.00000000E+00  0.00000000E+00  0.00000000E+00
  0.00000000E+00  0.00000000E+00  0.00000000E+00
  0.00000000E+00  0.00000000E+00  0.00000000E+00
  0.00000000E+00  0.00000000E+00  0.00000000E+00
  0.00000000E+00  0.00000000E+00  0.00000000E+00
  0.00000000E+00  0.00000000E+00  0.00000000E+00
