 C 
 1.0000000000000000
    28.0500000000000007    0.0000000000000000    0.0000000000000000
     0.0000000000000000    8.0999999999999996    0.0000000000000000
     0.0000000000000000    0.0000000000000000   33.5000000000000000
 C  
  92
Cartesian
  0.0985290000000000  0.8474260000000000 17.0943000000000005
  0.1714800000000000  2.2208299999999999 16.8739999999999988
  1.2300199999999999  0.1495770000000000 17.5127999999999986
  1.3451800000000000  2.8654299999999999 17.1049000000000007
  2.4709400000000001  0.8047020000000000 17.8305000000000007
  2.5357599999999998  2.1840600000000001 17.6201000000000008
  3.6970499999999999  0.1554770000000000 17.9919000000000011
  3.7992900000000001  2.8028400000000002 17.7013999999999996
  4.9613600000000000  0.8225660000000000 18.1459000000000010
  5.0305600000000004  2.1926399999999999 17.9966000000000008
  6.2218700000000000  0.1503040000000000 18.2273999999999994
  6.2506500000000003  2.8546299999999998 18.0370999999999988
  7.4550400000000003  0.7885380000000000 18.3530000000000015
  7.4730499999999997  2.1696499999999999 18.2881000000000000
  8.7706700000000009  0.1419410000000000 18.2430999999999983
  8.7321600000000004  2.8250400000000000 18.1102999999999987
  9.9618000000000002  0.7980690000000000 18.0990000000000002
  9.9636899999999997  2.2034199999999999 18.0516000000000005
 11.2423000000000002  0.1659130000000000 17.9177999999999997
 11.2181999999999995  2.8550000000000000 17.7656999999999989
 12.5014000000000003  0.8712170000000000 17.6521000000000008
 12.4415999999999993  2.2380200000000001 17.4744999999999990
 13.6555999999999997  0.2251160000000000 17.2661000000000016
 13.5701000000000001  2.8625900000000000 16.9024000000000001
 14.8557000000000006  0.8918640000000000 16.8718000000000004
 14.7911000000000001  2.2128800000000002 16.6488000000000014
 16.0505999999999993  0.1644140000000000 16.4691000000000010
 15.9756999999999998  2.9072000000000000 16.0619000000000014
 17.2163000000000004  0.8218770000000000 16.1676000000000002
 17.1368000000000009  2.2347999999999999 15.7643000000000004
 18.4039999999999999  0.1871660000000000 15.9525000000000006
 18.2852999999999994  2.8392400000000002 15.3966999999999992
 19.5858999999999988  0.8808270000000000 15.6387999999999998
 19.5473999999999997  2.1844000000000001 15.3543000000000003
 20.7815000000000012  0.1725130000000000 15.5138999999999996
 20.7447000000000017  2.8379099999999999 15.0693000000000001
 21.9774999999999991  0.8909460000000000 15.4557000000000002
 22.0529000000000011  2.1892399999999999 15.1984999999999992
 23.2158000000000015  0.1826160000000000 15.6767000000000003
 23.2784000000000013  2.8863099999999999 15.2573000000000008
 24.4545999999999992  0.8851500000000000 15.8655000000000008
 24.4843000000000011  2.2911299999999999 15.7210999999999999
 25.5621000000000009  0.2487640000000000 16.3834000000000017
 25.7328000000000010  2.9062800000000002 15.9799000000000007
 26.7447000000000017  0.9020230000000000 16.7077999999999989
 26.7962999999999987  2.2740700000000000 16.5194000000000010
  0.1381140000000000  4.9098600000000001 16.7608999999999995
  0.1468370000000000  6.2989899999999999 16.9685999999999986
  1.3639600000000001  4.2055100000000003 16.9635999999999996
  1.3169500000000001  6.9181400000000002 17.3240000000000016
  2.5835100000000000  4.8535500000000003 17.1832999999999991
  2.5421200000000002  6.2186399999999997 17.3333000000000013
  3.7928199999999999  4.1756000000000002 17.4280000000000008
  3.7802699999999998  6.9166900000000000 17.6552000000000007
  5.0037099999999999  4.8617999999999997 17.4455999999999989
  5.0118099999999997  6.2759999999999998 17.5763999999999996
  6.2629999999999999  4.1670499999999997 17.6384000000000007
  6.2257999999999996  6.9051799999999997 17.9384000000000015
  7.4925199999999998  4.8413100000000000 17.6448999999999998
  7.4943499999999998  6.2233000000000001 17.8112999999999992
  8.6911799999999992  4.2299899999999999 17.8258000000000010
  8.7514099999999999  6.8811099999999996 18.0386999999999986
  9.9510100000000001  4.9125199999999998 17.6520000000000010
  9.9451900000000002  6.2627100000000002 17.6940999999999988
 11.1942000000000004  4.2352100000000004 17.5752999999999986
 11.2082999999999995  6.9275099999999998 17.5695000000000014
 12.3583999999999996  4.9211299999999998 17.2001999999999988
 12.4074000000000009  6.2758799999999999 17.3191999999999986
 13.5066000000000006  4.2101400000000000 16.8175999999999988
 13.6311999999999998  6.9187300000000000 17.1143000000000001
 14.6981999999999999  4.9146799999999997 16.4146999999999998
 14.7757000000000005  6.2730100000000002 16.6443000000000012
 15.8970000000000002  4.2589899999999998 16.0152999999999999
 15.9768000000000008  6.8942300000000003 16.3914000000000009
 17.1065000000000005  4.8863099999999999 15.6518999999999995
 17.1413000000000011  6.2463899999999999 15.8727000000000000
 18.2634000000000007  4.1869199999999998 15.3701000000000008
 18.3712000000000018  6.9410200000000000 15.6919000000000004
 19.5027000000000008  4.8650200000000003 15.1005000000000003
 19.5211000000000006  6.2415000000000003 15.3127999999999993
 20.7519999999999989  4.2138400000000003 15.0616000000000003
 20.7678000000000011  6.8929499999999999 15.4263999999999992
 21.9866999999999990  4.8822999999999999 15.2574000000000005
 22.0166000000000004  6.2551399999999999 15.4009999999999998
 23.2365999999999993  4.2805000000000000 15.2429000000000006
 23.2164000000000001  6.9558299999999997 15.5556999999999999
 24.5259999999999998  4.9508000000000001 15.4501000000000008
 24.4864999999999995  6.2876700000000003 15.7980999999999998
 25.7136999999999993  4.2555600000000000 15.8068000000000008
 25.6358999999999995  6.9657099999999996 16.2463000000000015
 26.8554999999999993  4.9195900000000004 16.3220999999999989
 26.7923000000000009  6.2989300000000004 16.5519999999999996
