 C                                      
    1.000000000000000     
    28.0500000000000007    0.0000000000000000    0.0000000000000000
     0.0000000000000000    8.0999999999999996    0.0000000000000000
     0.0000000000000000    0.0000000000000000   33.5000000000000000
   C 
    92
Direct
     0.2246791443850285    0.3991950617283919    0.0768352238806003
     0.2276709447415328    0.5769481481481478    0.0757531343283588
     0.2683436720142609    0.3215111111111142    0.0752970149253755
     0.2705771836007145    0.6633074074074088    0.0755737313432832
     0.3134363636363631    0.4027407407407395    0.0782044776119406
     0.3138855614973295    0.5741530864197557    0.0756674626865674
     0.3574866310160445    0.3211246913580226    0.0839050746268626
     0.3574652406417087    0.6532765432098770    0.0755716417910435
     0.4009839572192533    0.4055456790123486    0.0890483582089558
     0.4013226381461692    0.5753592592592582    0.0859077611940293
     0.4438502673796805    0.3191913580246890    0.0987510447761224
     0.4455864527629245    0.6561888888888916    0.0976265671641769
     0.4853226381461653    0.3990493827160506    0.1127907462686579
     0.4863172905525843    0.5698395061728405    0.1119483582089558
     0.5293404634581123    0.3195790123456774    0.1221997014925407
     0.5289661319073105    0.6538975308641994    0.1190907462686539
     0.5714295900178286    0.4013617283950595    0.1317441791044800
     0.5697183600712989    0.5694160493827169    0.1346844776119411
     0.6142531194295913    0.3235518518518532    0.1462970149253735
     0.6145918003565072    0.6521814814814846    0.1402220895522390
     0.6570124777183608    0.4046703703703685    0.1519516417910438
     0.6587629233511620    0.5719395061728392    0.1482104477611941
     0.7017932263814615    0.3222913580246924    0.1624468656716402
     0.7010267379679149    0.6521691358024668    0.1580537313432870
     0.7449946524064188    0.4021308641975310    0.1638253731343298
     0.7463065953654180    0.5726345679012326    0.1642044776119391
     0.7895329768270969    0.3233703703703696    0.1645325373134341
     0.7912691622103409    0.6529703703703689    0.1603068656716431
     0.8345811051693417    0.3928654320987661    0.1596385074626880
     0.8350909090909084    0.5662234567901265    0.1592310447761207
     0.8770944741532958    0.3109839506172847    0.1491686567164194
     0.8775828877005338    0.6450703703703695    0.1541907462686538
     0.9226631016042788    0.3922938271604934    0.1470388059701477
     0.9223458110516916    0.5654098765432067    0.1493477611940293
     0.9634224598930459    0.3158419753086434    0.1352725373134334
     0.9648520499108741    0.6501432098765463    0.1411059701492547
     0.0070915864527663    0.3990296296296307    0.1248764179104498
     0.0057317290552561    0.5671518518518539    0.1276191044776098
     0.0482181818181786    0.3147716049382723    0.1113080597014928
     0.0498117647058791    0.6475975308641964    0.1122149253731308
     0.0895814616755786    0.3951246913580277    0.1006011940298492
     0.0918734402852053    0.5640740740740711    0.1025304477611968
     0.1322253119429604    0.3142901234567930    0.0870349253731320
     0.1351397504456315    0.6414567901234562    0.0923868656716422
     0.1751497326203193    0.3914395061728371    0.0806832835820899
     0.1780385026738003    0.5675469135802444    0.0833140298507473
     0.2278573975044580    0.9071296296296296    0.0725573134328386
     0.2255732620320856    0.0789632098765409    0.0694853731343272
     0.2703458110516905    0.8307432098765446    0.0719158208955193
     0.2705358288770086    0.1591851851851871    0.0704143283582113
     0.3145960784313715    0.9071691358024694    0.0724325373134320
     0.3141860962566838    0.0749498765432079    0.0753459701492503
     0.3599001782531204    0.8220456790123478    0.0744056716417916
     0.3578930481283393    0.1539148148148115    0.0796767164179073
     0.4033155080213930    0.8983234567901235    0.0837391044776155
     0.4022959001782525    0.0733559259259238    0.0860161194029843
     0.4457397504456324    0.8245592592592601    0.0924877611940289
     0.4441319073083747    0.1571962962962985    0.0955513432835815
     0.4895187165775425    0.9083679012345698    0.1011722388059724
     0.4891051693404620    0.0711758024691349    0.1073662686567189
     0.5324420677361843    0.8299790123456816    0.1127214925373110
     0.5312335115864499    0.1554098765432101    0.1202698507462685
     0.5757005347593562    0.9041703703703732    0.1259862686567175
     0.5730944741533008    0.0720951851851837    0.1315531343283567
     0.6156720142602481    0.8224259259259270    0.1407904477611908
     0.6141818181818195    0.1525061728395087    0.1476146268656748
     0.6576114081996423    0.9055938271604944    0.1537161194029864
     0.6566880570409950    0.0743043209876575    0.1578895522388066
     0.7018859180035619    0.8187358024691349    0.1568600000000018
     0.7008841354723714    0.1566975308642000    0.1625020895522411
     0.7457005347593579    0.9036123456790150    0.1621901492537319
     0.7447985739750465    0.0669660493827138    0.1671262686567161
     0.7902032085561501    0.8189259259259245    0.1582020895522405
     0.7889875222816372    0.1507518518518509    0.1637173134328336
     0.8336969696969732    0.9003000000000014    0.1517605970149276
     0.8337504456328020    0.0675190123456773    0.1555289552238790
     0.8778859180035639    0.8139567901234557    0.1485465671641819
     0.8758752228163971    0.1430395061728404    0.1447525373134297
     0.9212085561497361    0.8942493827160476    0.1372776119402985
     0.9200285204991090    0.0644876543209847    0.1339797014925352
     0.9646631016042804    0.8187617283950601    0.1327707462686547
     0.9629019607843148    0.1467580246913585    0.1297050746268624
     0.0058950802139037    0.8977037037037050    0.1167149253731310
     0.0060071657754008    0.0643746913580259    0.1192552238806002
     0.0483226381461677    0.8144654320987641    0.1044710447761190
     0.0493985739750471    0.1450506172839496    0.1088050746268650
     0.0902449197860946    0.8930135802469152    0.0930982089552259
     0.0882014260249520    0.0616479012345650    0.0922808955223857
     0.1331222816399276    0.8102358024691370    0.0894964179104463
     0.1315301247771856    0.1495246913580246    0.0812047761193995
     0.1743778966131941    0.8965259259259284    0.0774176119402981
     0.1738670231729031    0.0686446913580241    0.0745122388059727
 
  0.00000000E+00  0.00000000E+00  0.00000000E+00
  0.00000000E+00  0.00000000E+00  0.00000000E+00
  0.00000000E+00  0.00000000E+00  0.00000000E+00
  0.00000000E+00  0.00000000E+00  0.00000000E+00
  0.00000000E+00  0.00000000E+00  0.00000000E+00
  0.00000000E+00  0.00000000E+00  0.00000000E+00
  0.00000000E+00  0.00000000E+00  0.00000000E+00
  0.00000000E+00  0.00000000E+00  0.00000000E+00
  0.00000000E+00  0.00000000E+00  0.00000000E+00
  0.00000000E+00  0.00000000E+00  0.00000000E+00
  0.00000000E+00  0.00000000E+00  0.00000000E+00
  0.00000000E+00  0.00000000E+00  0.00000000E+00
  0.00000000E+00  0.00000000E+00  0.00000000E+00
  0.00000000E+00  0.00000000E+00  0.00000000E+00
  0.00000000E+00  0.00000000E+00  0.00000000E+00
  0.00000000E+00  0.00000000E+00  0.00000000E+00
  0.00000000E+00  0.00000000E+00  0.00000000E+00
  0.00000000E+00  0.00000000E+00  0.00000000E+00
  0.00000000E+00  0.00000000E+00  0.00000000E+00
  0.00000000E+00  0.00000000E+00  0.00000000E+00
  0.00000000E+00  0.00000000E+00  0.00000000E+00
  0.00000000E+00  0.00000000E+00  0.00000000E+00
  0.00000000E+00  0.00000000E+00  0.00000000E+00
  0.00000000E+00  0.00000000E+00  0.00000000E+00
  0.00000000E+00  0.00000000E+00  0.00000000E+00
  0.00000000E+00  0.00000000E+00  0.00000000E+00
  0.00000000E+00  0.00000000E+00  0.00000000E+00
  0.00000000E+00  0.00000000E+00  0.00000000E+00
  0.00000000E+00  0.00000000E+00  0.00000000E+00
  0.00000000E+00  0.00000000E+00  0.00000000E+00
  0.00000000E+00  0.00000000E+00  0.00000000E+00
  0.00000000E+00  0.00000000E+00  0.00000000E+00
  0.00000000E+00  0.00000000E+00  0.00000000E+00
  0.00000000E+00  0.00000000E+00  0.00000000E+00
  0.00000000E+00  0.00000000E+00  0.00000000E+00
  0.00000000E+00  0.00000000E+00  0.00000000E+00
  0.00000000E+00  0.00000000E+00  0.00000000E+00
  0.00000000E+00  0.00000000E+00  0.00000000E+00
  0.00000000E+00  0.00000000E+00  0.00000000E+00
  0.00000000E+00  0.00000000E+00  0.00000000E+00
  0.00000000E+00  0.00000000E+00  0.00000000E+00
  0.00000000E+00  0.00000000E+00  0.00000000E+00
  0.00000000E+00  0.00000000E+00  0.00000000E+00
  0.00000000E+00  0.00000000E+00  0.00000000E+00
  0.00000000E+00  0.00000000E+00  0.00000000E+00
  0.00000000E+00  0.00000000E+00  0.00000000E+00
  0.00000000E+00  0.00000000E+00  0.00000000E+00
  0.00000000E+00  0.00000000E+00  0.00000000E+00
  0.00000000E+00  0.00000000E+00  0.00000000E+00
  0.00000000E+00  0.00000000E+00  0.00000000E+00
  0.00000000E+00  0.00000000E+00  0.00000000E+00
  0.00000000E+00  0.00000000E+00  0.00000000E+00
  0.00000000E+00  0.00000000E+00  0.00000000E+00
  0.00000000E+00  0.00000000E+00  0.00000000E+00
  0.00000000E+00  0.00000000E+00  0.00000000E+00
  0.00000000E+00  0.00000000E+00  0.00000000E+00
  0.00000000E+00  0.00000000E+00  0.00000000E+00
  0.00000000E+00  0.00000000E+00  0.00000000E+00
  0.00000000E+00  0.00000000E+00  0.00000000E+00
  0.00000000E+00  0.00000000E+00  0.00000000E+00
  0.00000000E+00  0.00000000E+00  0.00000000E+00
  0.00000000E+00  0.00000000E+00  0.00000000E+00
  0.00000000E+00  0.00000000E+00  0.00000000E+00
  0.00000000E+00  0.00000000E+00  0.00000000E+00
  0.00000000E+00  0.00000000E+00  0.00000000E+00
  0.00000000E+00  0.00000000E+00  0.00000000E+00
  0.00000000E+00  0.00000000E+00  0.00000000E+00
  0.00000000E+00  0.00000000E+00  0.00000000E+00
  0.00000000E+00  0.00000000E+00  0.00000000E+00
  0.00000000E+00  0.00000000E+00  0.00000000E+00
  0.00000000E+00  0.00000000E+00  0.00000000E+00
  0.00000000E+00  0.00000000E+00  0.00000000E+00
  0.00000000E+00  0.00000000E+00  0.00000000E+00
  0.00000000E+00  0.00000000E+00  0.00000000E+00
  0.00000000E+00  0.00000000E+00  0.00000000E+00
  0.00000000E+00  0.00000000E+00  0.00000000E+00
  0.00000000E+00  0.00000000E+00  0.00000000E+00
  0.00000000E+00  0.00000000E+00  0.00000000E+00
  0.00000000E+00  0.00000000E+00  0.00000000E+00
  0.00000000E+00  0.00000000E+00  0.00000000E+00
  0.00000000E+00  0.00000000E+00  0.00000000E+00
  0.00000000E+00  0.00000000E+00  0.00000000E+00
  0.00000000E+00  0.00000000E+00  0.00000000E+00
  0.00000000E+00  0.00000000E+00  0.00000000E+00
  0.00000000E+00  0.00000000E+00  0.00000000E+00
  0.00000000E+00  0.00000000E+00  0.00000000E+00
  0.00000000E+00  0.00000000E+00  0.00000000E+00
  0.00000000E+00  0.00000000E+00  0.00000000E+00
  0.00000000E+00  0.00000000E+00  0.00000000E+00
  0.00000000E+00  0.00000000E+00  0.00000000E+00
  0.00000000E+00  0.00000000E+00  0.00000000E+00
  0.00000000E+00  0.00000000E+00  0.00000000E+00
