 C 
 1.0000000000000000
    28.0500000000000007    0.0000000000000000    0.0000000000000000
     0.0000000000000000    8.0999999999999996    0.0000000000000000
     0.0000000000000000    0.0000000000000000   33.5000000000000000
 C  
  92
Cartesian
  0.0752006000000000  0.8904680000000000 17.1494000000000000
  0.1837220000000000  2.2116600000000002 16.8868000000000009
  1.3002800000000001  0.1613210000000000 17.2344000000000008
  1.3413999999999999  2.8910200000000001 17.1000000000000014
  2.4262999999999999  0.8376830000000000 17.7311000000000014
  2.4582000000000002  2.2228100000000000 17.7306999999999988
  3.6968399999999999  0.1960430000000000 17.9351999999999983
  3.6855099999999998  2.8739699999999999 17.9895999999999994
  4.8973399999999998  0.8766000000000000 18.3245000000000005
  4.8847699999999996  2.2058200000000001 18.3446999999999996
  6.1897300000000000  0.1815140000000000 18.3034999999999997
  6.1551299999999998  2.8698299999999999 18.3977000000000004
  7.4145000000000003  0.8440470000000000 18.4743999999999993
  7.4480100000000000  2.2474699999999999 18.5610999999999997
  8.6763200000000005  0.1949390000000000 18.4131000000000000
  8.6897400000000005  2.8664900000000002 18.4315999999999995
  9.9820600000000006  0.8317920000000000 18.3444000000000003
  9.9524899999999992  2.2158099999999998 18.2805000000000000
 11.1917000000000009  0.1353980000000000 18.0268000000000015
 11.1074999999999999  2.8518400000000002 17.7929999999999993
 12.3840000000000003  0.8336130000000000 17.7376000000000005
 12.3206000000000007  2.1636299999999999 17.5076999999999998
 13.5741999999999994  0.1294640000000000 17.3506999999999998
 13.4784000000000006  2.8867699999999998 17.0748999999999995
 14.7852999999999994  0.8374010000000000 17.1116999999999990
 14.7359000000000009  2.2071200000000002 16.8430000000000000
 16.0501000000000005  0.1964320000000000 16.7341000000000015
 15.8828999999999994  2.8565900000000002 16.2927999999999997
 17.2243999999999993  0.8585390000000001 16.3148000000000017
 17.1057999999999986  2.1702400000000002 16.0294999999999987
 18.4131999999999998  0.1471370000000000 16.0152999999999999
 18.3125999999999998  2.8383400000000001 15.5140999999999991
 19.6140000000000008  0.8510970000000000 15.6739999999999995
 19.5655999999999999  2.2311500000000000 15.4398999999999997
 20.7857999999999983  0.1817920000000000 15.4446999999999992
 20.7941000000000003  2.8762300000000001 15.1883999999999997
 22.0397999999999996  0.7857189999999999 15.2885000000000009
 22.0736999999999988  2.1457299999999999 15.3407000000000000
 23.3212000000000010  0.1814730000000000 15.2148000000000003
 23.2758000000000003  2.8855300000000002 15.3271999999999995
 24.5063999999999993  0.8567540000000000 15.5719999999999992
 24.5148000000000010  2.2242999999999999 15.4367999999999999
 25.6996000000000002  0.1815390000000000 15.8676999999999992
 25.7236000000000011  2.8874399999999998 15.7074999999999996
 26.7465000000000011  0.8821020000000001 16.4532999999999987
 26.8389999999999986  2.2538499999999999 16.2595999999999989
  0.3637700000000000  4.8090900000000003 16.1543999999999990
  0.4246690000000000  6.2524400000000000 16.1436999999999991
  1.4988999999999999  4.2031599999999996 16.7910000000000004
  1.4192700000000000  6.9351599999999998 16.8313999999999986
  2.6210399999999998  4.9367999999999999 17.2245999999999988
  2.6139299999999999  6.2701599999999997 17.1500999999999983
  3.7006999999999999  4.2568500000000000 17.8492999999999995
  3.7431999999999999  6.9493700000000000 17.6195999999999984
  4.9725400000000004  4.8819600000000003 18.0561000000000007
  4.9865800000000000  6.2771299999999997 17.8571999999999989
  6.2116499999999997  4.2224899999999996 18.2966000000000015
  6.2294799999999997  6.9371900000000002 18.1489000000000011
  7.4464199999999998  4.9038300000000001 18.2771000000000008
  7.4580700000000002  6.2602000000000002 18.2931999999999988
  8.6879799999999996  4.2312300000000000 18.2727000000000004
  8.6817499999999992  6.8839699999999997 18.3225000000000016
  9.9137400000000007  4.8899200000000000 18.0548999999999999
  9.9204100000000004  6.2706799999999996 18.1668999999999983
 11.0832999999999995  4.2027599999999996 17.6442000000000014
 11.0899000000000001  6.8787300000000000 17.7973999999999997
 12.2913999999999994  4.8936799999999998 17.2252000000000010
 12.2567000000000004  6.2106199999999996 17.2359000000000009
 13.4495000000000005  4.2170500000000004 16.8087000000000018
 13.5146999999999995  6.9172099999999999 16.9713999999999992
 14.6906999999999996  4.9019599999999999 16.4381999999999984
 14.7486999999999995  6.2813999999999997 16.5920999999999985
 15.8920999999999992  4.2466299999999997 16.1484999999999985
 16.0018999999999991  6.9485099999999997 16.4846000000000004
 17.0703999999999994  4.8880499999999998 15.7104999999999997
 17.1528999999999989  6.2443000000000000 15.9831000000000003
 18.2830000000000013  4.2487700000000004 15.4015000000000004
 18.3786999999999985  6.8906499999999999 15.7201000000000004
 19.5052999999999983  4.9152199999999997 15.0700000000000003
 19.5247999999999990  6.2985300000000004 15.1129999999999995
 20.7593999999999994  4.2092900000000002 15.0155999999999992
 20.7750999999999983  6.9407699999999997 15.1519999999999992
 22.0363000000000007  4.8727000000000000 15.0425000000000004
 22.0000999999999998  6.2567800000000000 14.9929000000000006
 23.2915999999999990  4.2008299999999998 15.1187000000000005
 23.3524999999999991  6.8714300000000001 15.1813000000000002
 24.6165999999999983  4.9063499999999998 15.0853000000000002
 24.6047000000000011  6.2385700000000002 15.1585000000000001
 25.7750999999999983  4.2687600000000003 15.3995999999999995
 25.8387999999999991  6.9744999999999999 15.4809000000000001
 27.0483000000000011  4.8641199999999998 15.6927000000000003
 27.0625000000000000  6.2837399999999999 15.6316000000000006
