 C 
 1.0000000000000000
    28.0500000000000007    0.0000000000000000    0.0000000000000000
     0.0000000000000000    8.0999999999999996    0.0000000000000000
     0.0000000000000000    0.0000000000000000   33.5000000000000000
 C  
  92
Cartesian
  0.2676420000000000  0.9122790000000000 15.1069999999999993
  0.2800050000000000  2.2816399999999999 15.2443000000000008
  1.4607200000000000  0.1933780000000000 15.2471999999999994
  1.4959400000000000  2.9007299999999998 15.5287000000000006
  2.7198500000000001  0.8009620000000000 15.4928000000000008
  2.7675999999999998  2.1578700000000000 15.6166999999999998
  3.9385800000000000  0.2614700000000000 15.8968000000000007
  3.8981100000000000  2.8586000000000000 16.0799999999999983
  5.1592300000000000  0.8507439999999999 16.2336999999999989
  5.1610600000000000  2.2072200000000000 16.3707999999999991
  6.2749300000000003  0.2005250000000000 16.7177000000000007
  6.2480200000000004  2.8159600000000000 16.9343000000000004
  7.5204399999999998  0.7674310000000000 17.0531000000000006
  7.5118000000000000  2.1407400000000001 17.2143000000000015
  8.6348599999999998  0.0963301000000000 17.5606000000000009
  8.6519200000000005  2.7708100000000000 17.7549999999999990
  9.8607200000000006  0.7826860000000000 17.8439000000000014
  9.8516399999999997  2.1301500000000000 18.0582999999999991
 11.0823999999999998  0.1403780000000000 18.0659999999999989
 11.0749999999999993  2.7863600000000002 18.2627999999999986
 12.3482000000000003  0.7858950000000000 18.0808000000000000
 12.3603000000000005  2.1370499999999999 18.3565000000000005
 13.5581999999999994  0.1627410000000000 18.1029000000000018
 13.5579000000000001  2.8195700000000001 18.2651000000000003
 14.7329000000000008  0.8026140000000000 17.8273000000000010
 14.7329000000000008  2.1900599999999999 17.8785999999999987
 16.0116000000000014  0.1639300000000000 17.7605000000000004
 16.0015000000000001  2.8477500000000000 17.7009000000000007
 17.1725999999999992  0.8667390000000000 17.3093000000000004
 17.1992000000000012  2.2381000000000002 17.3964999999999996
 18.3522999999999996  0.2124410000000000 16.9481000000000002
 18.4287999999999990  2.9176700000000002 17.1418999999999997
 19.5804000000000009  0.8883010000000000 16.6886000000000010
 19.6286999999999985  2.2422900000000001 16.7434000000000012
 20.7235000000000014  0.2274940000000000 16.2689999999999984
 20.7837999999999994  2.8780700000000001 16.4059999999999988
 21.9013999999999989  0.8849230000000000 15.8102999999999998
 21.8703000000000003  2.2628800000000000 15.8943999999999992
 23.1290000000000013  0.1973070000000000 15.4869000000000003
 23.1560999999999986  2.8601000000000001 15.7227999999999994
 24.3554999999999993  0.8975620000000000 15.1457999999999995
 24.3720999999999997  2.2212100000000001 15.3552999999999997
 25.6177999999999990  0.2219770000000000 14.9707000000000008
 25.6067000000000000  2.8598900000000000 15.2073000000000000
 26.8726999999999983  0.8310850000000000 15.0490999999999993
 26.8658000000000001  2.2754099999999999 15.2285000000000004
  0.1834190000000000  4.9598599999999999 15.5196000000000005
  0.1462730000000000  6.3418099999999997 15.3460999999999999
  1.3717900000000001  4.2660999999999998 15.7192000000000007
  1.4252300000000000  6.9420400000000004 15.4802000000000000
  2.6031200000000001  4.8896400000000000 15.9898000000000007
  2.6287600000000002  6.2994599999999998 15.8846000000000007
  3.8177200000000000  4.2495000000000003 16.2788000000000004
  3.8504000000000000  6.9963499999999996 16.1090000000000018
  5.0330800000000000  4.9116200000000001 16.6544999999999987
  5.0321100000000003  6.2850999999999999 16.5231999999999992
  6.2365800000000000  4.1821500000000000 17.0759000000000007
  6.1998800000000003  6.9440999999999997 17.0272000000000006
  7.4271399999999996  4.8287599999999999 17.5778999999999996
  7.3779399999999997  6.2146600000000003 17.5191000000000017
  8.6361000000000008  4.1636800000000003 17.8229000000000006
  8.6005099999999999  6.8518200000000000 17.7787000000000006
  9.8002500000000001  4.8025399999999996 18.2171999999999983
  9.8173499999999994  6.2249100000000004 18.2641999999999989
 11.0997000000000003  4.1591600000000000 18.3797999999999995
 11.0873000000000008  6.8983100000000004 18.3893999999999984
 12.3486999999999991  4.8706699999999996 18.5472000000000001
 12.3277000000000001  6.2435200000000002 18.6014000000000017
 13.5876999999999999  4.2116600000000002 18.4572000000000003
 13.6287000000000003  6.9425299999999996 18.4177000000000000
 14.8295999999999992  4.8691700000000004 18.3257000000000012
 14.8315000000000001  6.2464399999999998 18.3094999999999999
 16.0350000000000001  4.2018000000000004 17.9502999999999986
 16.0747000000000000  6.9024700000000001 18.0147000000000013
 17.2372000000000014  4.9095399999999998 17.6886000000000010
 17.2757000000000005  6.2910700000000004 17.7441999999999993
 18.4358000000000004  4.2453099999999999 17.2759999999999998
 18.4003000000000014  6.9859600000000004 17.1804999999999986
 19.5973000000000006  4.9604400000000002 16.9098000000000006
 19.6118999999999986  6.3076400000000001 16.7655999999999992
 20.7947999999999986  4.2313700000000001 16.5258000000000003
 20.7332000000000001  6.9463499999999998 16.3730000000000011
 21.9302999999999990  4.9000800000000000 16.1076000000000015
 21.9472999999999985  6.2982300000000002 15.9774999999999991
 23.1950000000000003  4.2213900000000004 15.8803000000000001
 23.1247000000000007  6.9338899999999999 15.6319999999999997
 24.3344999999999985  4.9094400000000000 15.5053999999999998
 24.3702000000000005  6.2760499999999997 15.3670000000000009
 25.5725000000000016  4.2464500000000003 15.3051999999999992
 25.5542000000000016  6.9662499999999996 15.0404999999999998
 26.8062000000000005  4.8595699999999997 15.3816000000000006
 26.7729999999999997  6.2618099999999997 15.1280999999999999
