 C                                      
    1.000000000000000     
    28.0500000000000007    0.0000000000000000    0.0000000000000000
     0.0000000000000000    8.0999999999999996    0.0000000000000000
     0.0000000000000000    0.0000000000000000   33.5000000000000000
   C 
    92
Direct
     0.4030766488413562    0.6337432098765419    0.8589483582089557
     0.4034652406417081    0.8064506172839501    0.8586534328358226
     0.4468841354723736    0.5548901234567936    0.8534065671641784
     0.4473440285204973    0.8888469135802453    0.8565782089552272
     0.4923743315507991    0.6313370370370350    0.8475826865671650
     0.4903672014260252    0.8056913580246885    0.8474152238805956
     0.5340606060606063    0.5539493827160484    0.8352782089552235
     0.5353440285204982    0.8780641975308612    0.8403976119402969
     0.5726345811051701    0.6349666666666636    0.8165570149253725
     0.5730338680926934    0.8071641975308665    0.8173492537313436
     0.6150160427807521    0.5507345679012374    0.8039480597014901
     0.6157932263814629    0.8843074074074053    0.8041620895522357
     0.6571836007130116    0.6297913580246899    0.7916068656716391
     0.6575864527629207    0.8041283950617313    0.7896364179104509
     0.7005668449197842    0.5514259259259262    0.7820223880597013
     0.7038324420677355    0.8837382716049405    0.7830638805970125
     0.7441176470588218    0.6319901234567880    0.7688674626865648
     0.7463850267379684    0.8033296296296299    0.7703158208955259
     0.7880784313725471    0.5554679012345645    0.7651182089552222
     0.7906203208556164    0.8798802469135794    0.7678122388059734
     0.8339857397504460    0.6318259259259236    0.7582964179104508
     0.8349340463458077    0.8023802469135788    0.7625597014925347
     0.8782424242424227    0.5507444444444474    0.7599029850746248
     0.8777112299465273    0.8822086419753106    0.7637844776119422
     0.9232549019607816    0.6330061728395080    0.7649725373134331
     0.9218823529411750    0.7995716049382722    0.7682737313432852
     0.9655793226381491    0.5550098765432097    0.7794970149253757
     0.9623208556149763    0.8856802469135800    0.7828364179104454
     0.0107302317290561    0.6357728395061741    0.7849826865671616
     0.0089681639928685    0.8151123456790117    0.7869140298507489
     0.0504534759358322    0.5534851851851883    0.7997991044776143
     0.0527778966131933    0.8908333333333331    0.7955877611940281
     0.0939508021390409    0.6378160493827139    0.8125934328358184
     0.0945942959001798    0.8042617283950619    0.8089032835820902
     0.1332819964349383    0.5633555555555532    0.8278140298507495
     0.1375796791443875    0.8871395061728364    0.8202659701492507
     0.1778270944741536    0.6476456790123493    0.8364277611940309
     0.1818973262032060    0.8105320987654352    0.8274761194029878
     0.2198631016042754    0.5664037037037062    0.8518008955223877
     0.2253836007130090    0.8883839506172819    0.8334008955223879
     0.2648862745098057    0.6471765432098735    0.8581307462686567
     0.2666673796791414    0.8090012345679014    0.8476701492537302
     0.3073625668449225    0.5563432098765446    0.8649716417910440
     0.3099704099821778    0.8919111111111135    0.8503647761194060
     0.3508406417112298    0.6380160493827134    0.8591289552238806
     0.3516224598930506    0.8065333333333342    0.8568420895522380
     0.4033582887700504    0.1370617283950608    0.8669985074626894
     0.4041283422459898    0.3119592592592610    0.8674800000000005
     0.4483565062388593    0.0547630864197544    0.8637441791044793
     0.4483672014260236    0.3852432098765419    0.8599749253731375
     0.4928235294117655    0.1322407407407411    0.8564008955223912
     0.4938573975044562    0.3002765432098755    0.8540802985074620
     0.5375543672014231    0.0499327160493834    0.8449904477611909
     0.5364955436720109    0.3848728395061727    0.8420994029850775
     0.5780356506238888    0.1345925925925897    0.8323408955223854
     0.5797290552584684    0.3045283950617304    0.8348352238805958
     0.6174224598930493    0.0488533333333336    0.8121029850746240
     0.6172121212121198    0.3809012345679008    0.8132865671641767
     0.6611265597147948    0.1304913580246918    0.8018191044776088
     0.6606737967914427    0.3023814814814827    0.8028504477611946
     0.7015222816399316    0.0492503703703733    0.7882934328358218
     0.7016934046345824    0.3789432098765460    0.7875441791044793
     0.7470374331550786    0.1323012345679047    0.7821576119402991
     0.7452335115864557    0.2997395061728412    0.7783561194029858
     0.7898467023172913    0.0486770370370380    0.7760758208955210
     0.7898609625668485    0.3832407407407388    0.7689892537313412
     0.8323992869875241    0.1319296296296315    0.7723053731343299
     0.8332335115864495    0.3021987654321023    0.7661149253731310
     0.8770089126559739    0.0500612345678988    0.7704788059701499
     0.8790623885917981    0.3785814814814827    0.7648194029850757
     0.9204741532976826    0.1320382716049409    0.7766301492537337
     0.9233761140819965    0.3014456790123461    0.7728805970149253
     0.9636185383244182    0.0573881481481493    0.7842328358208945
     0.9660071301247797    0.3877691358024720    0.7786916417910419
     0.0080875579322637    0.1334728395061759    0.7917182089552242
     0.0079257397504477    0.3070925925925891    0.7921528358208931
     0.0500081996434929    0.0570446913580227    0.8022955223880572
     0.0516238859180049    0.3867530864197519    0.8054164179104504
     0.0922417112299456    0.1378617283950589    0.8163217910447784
     0.0920713012477705    0.3049271604938255    0.8188916417910477
     0.1345233511586486    0.0542209876543183    0.8260283582089585
     0.1349172905525862    0.3917148148148115    0.8288504477611909
     0.1782431372549027    0.1473641975308624    0.8341534328358193
     0.1759458110516903    0.3124555555555588    0.8426119402985108
     0.2224905525846737    0.0577086419753101    0.8393823880597040
     0.2196755793226401    0.3962222222222209    0.8511256716417890
     0.2653686274509823    0.1368506172839474    0.8494337313432823
     0.2632520499108750    0.3046432098765450    0.8564307462686571
     0.3103675579322669    0.0600480246913548    0.8536199999999994
     0.3075176470588232    0.3877679012345681    0.8645441791044775
     0.3511415329768255    0.1353765432098797    0.8680244776119395
     0.3508777183600742    0.3132024691358026    0.8687134328358184
 
  0.00000000E+00  0.00000000E+00  0.00000000E+00
  0.00000000E+00  0.00000000E+00  0.00000000E+00
  0.00000000E+00  0.00000000E+00  0.00000000E+00
  0.00000000E+00  0.00000000E+00  0.00000000E+00
  0.00000000E+00  0.00000000E+00  0.00000000E+00
  0.00000000E+00  0.00000000E+00  0.00000000E+00
  0.00000000E+00  0.00000000E+00  0.00000000E+00
  0.00000000E+00  0.00000000E+00  0.00000000E+00
  0.00000000E+00  0.00000000E+00  0.00000000E+00
  0.00000000E+00  0.00000000E+00  0.00000000E+00
  0.00000000E+00  0.00000000E+00  0.00000000E+00
  0.00000000E+00  0.00000000E+00  0.00000000E+00
  0.00000000E+00  0.00000000E+00  0.00000000E+00
  0.00000000E+00  0.00000000E+00  0.00000000E+00
  0.00000000E+00  0.00000000E+00  0.00000000E+00
  0.00000000E+00  0.00000000E+00  0.00000000E+00
  0.00000000E+00  0.00000000E+00  0.00000000E+00
  0.00000000E+00  0.00000000E+00  0.00000000E+00
  0.00000000E+00  0.00000000E+00  0.00000000E+00
  0.00000000E+00  0.00000000E+00  0.00000000E+00
  0.00000000E+00  0.00000000E+00  0.00000000E+00
  0.00000000E+00  0.00000000E+00  0.00000000E+00
  0.00000000E+00  0.00000000E+00  0.00000000E+00
  0.00000000E+00  0.00000000E+00  0.00000000E+00
  0.00000000E+00  0.00000000E+00  0.00000000E+00
  0.00000000E+00  0.00000000E+00  0.00000000E+00
  0.00000000E+00  0.00000000E+00  0.00000000E+00
  0.00000000E+00  0.00000000E+00  0.00000000E+00
  0.00000000E+00  0.00000000E+00  0.00000000E+00
  0.00000000E+00  0.00000000E+00  0.00000000E+00
  0.00000000E+00  0.00000000E+00  0.00000000E+00
  0.00000000E+00  0.00000000E+00  0.00000000E+00
  0.00000000E+00  0.00000000E+00  0.00000000E+00
  0.00000000E+00  0.00000000E+00  0.00000000E+00
  0.00000000E+00  0.00000000E+00  0.00000000E+00
  0.00000000E+00  0.00000000E+00  0.00000000E+00
  0.00000000E+00  0.00000000E+00  0.00000000E+00
  0.00000000E+00  0.00000000E+00  0.00000000E+00
  0.00000000E+00  0.00000000E+00  0.00000000E+00
  0.00000000E+00  0.00000000E+00  0.00000000E+00
  0.00000000E+00  0.00000000E+00  0.00000000E+00
  0.00000000E+00  0.00000000E+00  0.00000000E+00
  0.00000000E+00  0.00000000E+00  0.00000000E+00
  0.00000000E+00  0.00000000E+00  0.00000000E+00
  0.00000000E+00  0.00000000E+00  0.00000000E+00
  0.00000000E+00  0.00000000E+00  0.00000000E+00
  0.00000000E+00  0.00000000E+00  0.00000000E+00
  0.00000000E+00  0.00000000E+00  0.00000000E+00
  0.00000000E+00  0.00000000E+00  0.00000000E+00
  0.00000000E+00  0.00000000E+00  0.00000000E+00
  0.00000000E+00  0.00000000E+00  0.00000000E+00
  0.00000000E+00  0.00000000E+00  0.00000000E+00
  0.00000000E+00  0.00000000E+00  0.00000000E+00
  0.00000000E+00  0.00000000E+00  0.00000000E+00
  0.00000000E+00  0.00000000E+00  0.00000000E+00
  0.00000000E+00  0.00000000E+00  0.00000000E+00
  0.00000000E+00  0.00000000E+00  0.00000000E+00
  0.00000000E+00  0.00000000E+00  0.00000000E+00
  0.00000000E+00  0.00000000E+00  0.00000000E+00
  0.00000000E+00  0.00000000E+00  0.00000000E+00
  0.00000000E+00  0.00000000E+00  0.00000000E+00
  0.00000000E+00  0.00000000E+00  0.00000000E+00
  0.00000000E+00  0.00000000E+00  0.00000000E+00
  0.00000000E+00  0.00000000E+00  0.00000000E+00
  0.00000000E+00  0.00000000E+00  0.00000000E+00
  0.00000000E+00  0.00000000E+00  0.00000000E+00
  0.00000000E+00  0.00000000E+00  0.00000000E+00
  0.00000000E+00  0.00000000E+00  0.00000000E+00
  0.00000000E+00  0.00000000E+00  0.00000000E+00
  0.00000000E+00  0.00000000E+00  0.00000000E+00
  0.00000000E+00  0.00000000E+00  0.00000000E+00
  0.00000000E+00  0.00000000E+00  0.00000000E+00
  0.00000000E+00  0.00000000E+00  0.00000000E+00
  0.00000000E+00  0.00000000E+00  0.00000000E+00
  0.00000000E+00  0.00000000E+00  0.00000000E+00
  0.00000000E+00  0.00000000E+00  0.00000000E+00
  0.00000000E+00  0.00000000E+00  0.00000000E+00
  0.00000000E+00  0.00000000E+00  0.00000000E+00
  0.00000000E+00  0.00000000E+00  0.00000000E+00
  0.00000000E+00  0.00000000E+00  0.00000000E+00
  0.00000000E+00  0.00000000E+00  0.00000000E+00
  0.00000000E+00  0.00000000E+00  0.00000000E+00
  0.00000000E+00  0.00000000E+00  0.00000000E+00
  0.00000000E+00  0.00000000E+00  0.00000000E+00
  0.00000000E+00  0.00000000E+00  0.00000000E+00
  0.00000000E+00  0.00000000E+00  0.00000000E+00
  0.00000000E+00  0.00000000E+00  0.00000000E+00
  0.00000000E+00  0.00000000E+00  0.00000000E+00
  0.00000000E+00  0.00000000E+00  0.00000000E+00
  0.00000000E+00  0.00000000E+00  0.00000000E+00
  0.00000000E+00  0.00000000E+00  0.00000000E+00
  0.00000000E+00  0.00000000E+00  0.00000000E+00
