 C 
 1.0000000000000000
    28.0500000000000007    0.0000000000000000    0.0000000000000000
     0.0000000000000000    8.0999999999999996    0.0000000000000000
     0.0000000000000000    0.0000000000000000   33.5000000000000000
 C  
  92
Cartesian
 11.3063000000000002  5.1333200000000003 -4.7252299999999998
 11.3171999999999997  6.5322500000000003 -4.7351099999999997
 12.5350999999999999  4.4946099999999998 -4.9108799999999997
 12.5480000000000000  7.1996599999999997 -4.8046300000000004
 13.8110999999999997  5.1138300000000001 -5.1059799999999997
 13.7547999999999995  6.5260999999999996 -5.1115899999999996
 14.9803999999999995  4.4869899999999996 -5.5181800000000001
 15.0164000000000009  7.1123200000000004 -5.3466800000000001
 16.0624000000000002  5.1432300000000000 -6.1453400000000000
 16.0735999999999990  6.5380300000000000 -6.1188000000000002
 17.2512000000000008  4.4609500000000004 -6.5677399999999997
 17.2729999999999997  7.1628900000000000 -6.5605700000000002
 18.4340000000000011  5.1013099999999998 -6.9811699999999997
 18.4452999999999996  6.5134400000000001 -7.0471800000000000
 19.6509000000000000  4.4665499999999998 -7.3022499999999999
 19.7424999999999997  7.1582800000000004 -7.2673600000000000
 20.8724999999999987  5.1191199999999997 -7.7429399999999999
 20.9360999999999997  6.5069699999999999 -7.6944200000000000
 22.1055999999999990  4.4992900000000002 -7.8685400000000003
 22.1768999999999998  7.1270300000000004 -7.7782900000000001
 23.3933000000000000  5.1177900000000003 -8.0970700000000004
 23.4198999999999984  6.4992799999999997 -7.9542500000000000
 24.6346999999999987  4.4610300000000001 -8.0432500000000005
 24.6198000000000015  7.1458899999999996 -7.9132199999999999
 25.8973000000000013  5.1273499999999999 -7.8734200000000003
 25.8587999999999987  6.4765300000000003 -7.7628300000000001
 27.0844999999999985  4.4955800000000004 -7.3868499999999999
 26.9930999999999983  7.1740100000000000 -7.2749800000000002
  0.3009830000000000  5.1497599999999997 -7.2030799999999999
  0.2515570000000000  6.6024099999999999 -7.1383799999999997
  1.4152199999999999  4.4832299999999998 -6.7067300000000003
  1.4804200000000001  7.2157499999999999 -6.8478100000000000
  2.6353200000000001  5.1663100000000002 -6.2781200000000004
  2.6533699999999998  6.5145200000000001 -6.4017400000000002
  3.7385600000000001  4.5631800000000000 -5.7682300000000000
  3.8591099999999998  7.1858300000000002 -6.0210900000000001
  4.9880500000000003  5.2459300000000004 -5.4796699999999996
  5.1022200000000000  6.5653100000000002 -5.7795500000000004
  6.1671600000000000  4.5878699999999997 -4.9646699999999999
  6.3220099999999997  7.1959099999999996 -5.5810700000000004
  7.4300600000000001  5.2421300000000004 -4.7526200000000003
  7.4800199999999997  6.5529099999999998 -5.1030499999999996
  8.6215200000000003  4.5063800000000001 -4.5234500000000004
  8.6946700000000003  7.2244799999999998 -5.0127800000000002
  9.8410799999999998  5.1679300000000001 -4.7191799999999997
  9.8630099999999992  6.5329199999999998 -4.7957900000000002
 11.3141999999999996  1.1102000000000001 -4.4555499999999997
 11.3358000000000008  2.5268700000000002 -4.4394200000000001
 12.5763999999999996  0.4435810000000000 -4.5645699999999998
 12.5767000000000007  3.1204700000000001 -4.6908399999999997
 13.8237000000000005  1.0711500000000000 -4.8105700000000002
 13.8527000000000005  2.4322400000000002 -4.8883099999999997
 15.0784000000000002  0.4044550000000000 -5.1928200000000002
 15.0487000000000002  3.1174700000000000 -5.2896700000000001
 16.2138999999999989  1.0902000000000001 -5.6165799999999999
 16.2613999999999983  2.4666800000000002 -5.5330199999999996
 17.3186999999999998  0.3957120000000000 -6.2945500000000001
 17.3127999999999993  3.0853000000000002 -6.2549000000000001
 18.5445999999999991  1.0569800000000000 -6.6390599999999997
 18.5319000000000003  2.4492900000000000 -6.6045100000000003
 19.6777000000000015  0.3989280000000000 -7.0921700000000003
 19.6825000000000010  3.0694400000000002 -7.1172700000000004
 20.9543999999999997  1.0716399999999999 -7.2977200000000000
 20.9038000000000004  2.4278900000000001 -7.4250699999999998
 22.1552000000000007  0.3942840000000000 -7.5014599999999998
 22.1555999999999997  3.1042500000000000 -7.7388599999999999
 23.3488000000000007  1.0686300000000000 -7.6277699999999999
 23.3721999999999994  2.4478100000000000 -7.8351499999999996
 24.6001000000000012  0.4054960000000000 -7.6889599999999998
 24.6576999999999984  3.0665100000000001 -7.8785499999999997
 25.8192999999999984  1.0695100000000000 -7.4828900000000003
 25.9007000000000005  2.4417100000000000 -7.6085000000000003
 27.0294999999999987  0.4648440000000000 -7.2282000000000002
 27.0964999999999989  3.1409300000000000 -7.4138299999999999
  0.2268560000000000  1.0811299999999999 -6.9774399999999996
  0.2223170000000000  2.4874499999999999 -6.9628800000000002
  1.4027300000000000  0.4620620000000000 -6.6231000000000000
  1.4480500000000001  3.1326999999999998 -6.5185500000000003
  2.5873800000000000  1.1166799999999999 -6.1532200000000001
  2.5825999999999998  2.4699100000000000 -6.0671299999999997
  3.7733800000000000  0.4391900000000000 -5.8280500000000002
  3.7844300000000000  3.1728900000000002 -5.7335099999999999
  4.9997199999999999  1.1936500000000001 -5.5558600000000000
  4.9352799999999997  2.5308899999999999 -5.2725000000000000
  6.2408599999999996  0.4674400000000000 -5.3806900000000004
  6.1619000000000002  3.2094000000000000 -4.9872899999999998
  7.4435900000000004  1.1084900000000000 -5.0439699999999998
  7.3842200000000000  2.4676100000000001 -4.8095699999999999
  8.7058099999999996  0.4863890000000000 -4.9037300000000004
  8.6258700000000008  3.1409199999999999 -4.5377700000000001
  9.8495200000000001  1.0965499999999999 -4.4211799999999997
  9.8421199999999995  2.5369400000000000 -4.3981000000000003
