 C                                      
    1.000000000000000     
    28.0500000000000007    0.0000000000000000    0.0000000000000000
     0.0000000000000000    8.0999999999999996    0.0000000000000000
     0.0000000000000000    0.0000000000000000   33.5000000000000000
   C 
    92
Direct
     0.0029302959001782    0.1053317283950648    0.4930805970149237
     0.0022514260249551    0.2751049382716033    0.4904119402985074
     0.0457522281639910    0.0219416049382701    0.4888597014925367
     0.0456684491978621    0.3580432098765414    0.4844477611940263
     0.0896074866310173    0.1100355555555552    0.4775522388059699
     0.0873108734402877    0.2780160493827140    0.4748746268656703
     0.1331115864527632    0.0234464197530855    0.4720268656716442
     0.1322356506238833    0.3543037037037067    0.4696328358208959
     0.1749333333333354    0.1036972839506163    0.4618477611940293
     0.1759900178253133    0.2675962962962970    0.4627820895522419
     0.2201907308377926    0.0239927160493849    0.4595611940298525
     0.2211204991087357    0.3612061728395091    0.4596746268656702
     0.2647579322638123    0.1025649382716054    0.4575731343283564
     0.2663565062388571    0.2707950617283927    0.4579641791044793
     0.3092263814616771    0.0189809876543237    0.4580388059701477
     0.3096998217468823    0.3520395061728365    0.4602417910447727
     0.3548003565062388    0.1020139506172839    0.4592089552238789
     0.3531404634581108    0.2676518518518520    0.4650477611940289
     0.4001426024955421    0.0222012345679019    0.4603522388059673
     0.3965347593582891    0.3527851851851835    0.4746477611940279
     0.4430303030303051    0.1037334567901240    0.4672268656716412
     0.4428342245989327    0.2700283950617290    0.4747910447761186
     0.4870695187165808    0.0212381481481501    0.4773671641791069
     0.4857754010695174    0.3516913580246950    0.4843104477611959
     0.5253868092691647    0.1039417283950641    0.4946656716417905
     0.5276399286987541    0.2729567901234589    0.4987671641791067
     0.5662816399286967    0.0231506172839531    0.5121791044776103
     0.5700819964349364    0.3534432098765450    0.5108000000000033
     0.6092905525846675    0.1014972839506143    0.5281731343283553
     0.6107415329768244    0.2730037037037008    0.5262955223880610
     0.6513939393939410    0.0220666666666673    0.5396865671641820
     0.6522531194295880    0.3538283950617256    0.5373223880596996
     0.6953048128342232    0.1001720987654338    0.5495552238805956
     0.6961140819964342    0.2719012345678991    0.5468925373134326
     0.7410909090909072    0.0231617283950598    0.5521940298507459
     0.7408021390374344    0.3521962962962988    0.5518477611940327
     0.7841283422459924    0.1062249382716018    0.5483074626865658
     0.7845525846702301    0.2758543209876549    0.5491940298507458
     0.8292335115864518    0.0298014814814849    0.5412447761194059
     0.8279251336898383    0.3592925925925954    0.5387313432835796
     0.8700071301247760    0.1079627160493857    0.5282835820895500
     0.8699572192513401    0.2819024691358010    0.5284298507462708
     0.9129625668449179    0.0238200000000006    0.5172149253731320
     0.9139572192513370    0.3555456790123444    0.5168985074626846
     0.9546238859180036    0.1042317283950638    0.5075701492537306
     0.9529661319073099    0.2700888888888855    0.5029492537313445
     0.0068978609625674    0.5994888888888923    0.5030597014925391
     0.0095690196078451    0.7692012345679018    0.5102059701492507
     0.0469978609625699    0.5193925925925953    0.4929701492537291
     0.0496089126559696    0.8603999999999985    0.4995223880597024
     0.0923201426024960    0.6019308641975343    0.4886567164179070
     0.0909679144385009    0.7727296296296302    0.4893074626865683
     0.1338613190730840    0.5239679012345704    0.4780477611940270
     0.1349953654188951    0.8553345679012381    0.4796686567164201
     0.1789718360071291    0.6077703703703676    0.4733999999999980
     0.1795001782531216    0.7752592592592578    0.4723223880597018
     0.2215893048128308    0.5226913580246944    0.4664029850746303
     0.2223996434937590    0.8574666666666673    0.4632686567164157
     0.2674752228164010    0.5997975308641941    0.4670328358208948
     0.2661960784313706    0.7670444444444442    0.4653014925373142
     0.3107878787878775    0.5225728395061751    0.4653343283582103
     0.3099686274509779    0.8519024691358013    0.4611880597014917
     0.3555729055258467    0.5971432098765419    0.4653313432835802
     0.3554163992869874    0.7659802469135784    0.4634208955223897
     0.3991016042780728    0.5200333333333305    0.4728268656716423
     0.3991479500891231    0.8481679012345680    0.4640417910447781
     0.4459073083778975    0.5988950617283919    0.4737880597014907
     0.4445204991087337    0.7692802469135813    0.4703641791044788
     0.4894331550802136    0.5202382716049385    0.4814298507462667
     0.4881176470588215    0.8547827160493853    0.4747462686567161
     0.5309732620320844    0.6062728395061754    0.4905194029850719
     0.5291800356506258    0.7710283950617267    0.4892119402985102
     0.5728734402852069    0.5223222222222219    0.5064507462686549
     0.5687415329768299    0.8577259259259264    0.5108238805970160
     0.6115757575757570    0.6086160493827180    0.5236865671641766
     0.6093761140819964    0.7750320987654291    0.5245611940298502
     0.6550980392156873    0.5252172839506173    0.5323194029850740
     0.6522852049910881    0.8516185185185208    0.5374985074626863
     0.6965240641711219    0.6017419753086415    0.5419611940298523
     0.6970909090909103    0.7728518518518541    0.5417850746268655
     0.7406381461675551    0.5224555555555526    0.5462029850746291
     0.7402887700534748    0.8529901234567916    0.5496776119402966
     0.7860213903743301    0.6047679012345668    0.5477820895522356
     0.7864206773618534    0.7741419753086447    0.5466865671641798
     0.8308663101604310    0.5256654320987622    0.5443731343283602
     0.8299358288770051    0.8580814814814843    0.5416268656716383
     0.8745775401069551    0.6079382716049366    0.5382746268656717
     0.8743636363636398    0.7747925925925898    0.5364388059701497
     0.9158609625668461    0.5205296296296282    0.5246776119402980
     0.9173618538324391    0.8553037037037043    0.5261432835820870
     0.9580606060606058    0.6002901234567872    0.5163074626865694
     0.9590623885918035    0.7656493827160489    0.5226417910447765
 
  0.00000000E+00  0.00000000E+00  0.00000000E+00
  0.00000000E+00  0.00000000E+00  0.00000000E+00
  0.00000000E+00  0.00000000E+00  0.00000000E+00
  0.00000000E+00  0.00000000E+00  0.00000000E+00
  0.00000000E+00  0.00000000E+00  0.00000000E+00
  0.00000000E+00  0.00000000E+00  0.00000000E+00
  0.00000000E+00  0.00000000E+00  0.00000000E+00
  0.00000000E+00  0.00000000E+00  0.00000000E+00
  0.00000000E+00  0.00000000E+00  0.00000000E+00
  0.00000000E+00  0.00000000E+00  0.00000000E+00
  0.00000000E+00  0.00000000E+00  0.00000000E+00
  0.00000000E+00  0.00000000E+00  0.00000000E+00
  0.00000000E+00  0.00000000E+00  0.00000000E+00
  0.00000000E+00  0.00000000E+00  0.00000000E+00
  0.00000000E+00  0.00000000E+00  0.00000000E+00
  0.00000000E+00  0.00000000E+00  0.00000000E+00
  0.00000000E+00  0.00000000E+00  0.00000000E+00
  0.00000000E+00  0.00000000E+00  0.00000000E+00
  0.00000000E+00  0.00000000E+00  0.00000000E+00
  0.00000000E+00  0.00000000E+00  0.00000000E+00
  0.00000000E+00  0.00000000E+00  0.00000000E+00
  0.00000000E+00  0.00000000E+00  0.00000000E+00
  0.00000000E+00  0.00000000E+00  0.00000000E+00
  0.00000000E+00  0.00000000E+00  0.00000000E+00
  0.00000000E+00  0.00000000E+00  0.00000000E+00
  0.00000000E+00  0.00000000E+00  0.00000000E+00
  0.00000000E+00  0.00000000E+00  0.00000000E+00
  0.00000000E+00  0.00000000E+00  0.00000000E+00
  0.00000000E+00  0.00000000E+00  0.00000000E+00
  0.00000000E+00  0.00000000E+00  0.00000000E+00
  0.00000000E+00  0.00000000E+00  0.00000000E+00
  0.00000000E+00  0.00000000E+00  0.00000000E+00
  0.00000000E+00  0.00000000E+00  0.00000000E+00
  0.00000000E+00  0.00000000E+00  0.00000000E+00
  0.00000000E+00  0.00000000E+00  0.00000000E+00
  0.00000000E+00  0.00000000E+00  0.00000000E+00
  0.00000000E+00  0.00000000E+00  0.00000000E+00
  0.00000000E+00  0.00000000E+00  0.00000000E+00
  0.00000000E+00  0.00000000E+00  0.00000000E+00
  0.00000000E+00  0.00000000E+00  0.00000000E+00
  0.00000000E+00  0.00000000E+00  0.00000000E+00
  0.00000000E+00  0.00000000E+00  0.00000000E+00
  0.00000000E+00  0.00000000E+00  0.00000000E+00
  0.00000000E+00  0.00000000E+00  0.00000000E+00
  0.00000000E+00  0.00000000E+00  0.00000000E+00
  0.00000000E+00  0.00000000E+00  0.00000000E+00
  0.00000000E+00  0.00000000E+00  0.00000000E+00
  0.00000000E+00  0.00000000E+00  0.00000000E+00
  0.00000000E+00  0.00000000E+00  0.00000000E+00
  0.00000000E+00  0.00000000E+00  0.00000000E+00
  0.00000000E+00  0.00000000E+00  0.00000000E+00
  0.00000000E+00  0.00000000E+00  0.00000000E+00
  0.00000000E+00  0.00000000E+00  0.00000000E+00
  0.00000000E+00  0.00000000E+00  0.00000000E+00
  0.00000000E+00  0.00000000E+00  0.00000000E+00
  0.00000000E+00  0.00000000E+00  0.00000000E+00
  0.00000000E+00  0.00000000E+00  0.00000000E+00
  0.00000000E+00  0.00000000E+00  0.00000000E+00
  0.00000000E+00  0.00000000E+00  0.00000000E+00
  0.00000000E+00  0.00000000E+00  0.00000000E+00
  0.00000000E+00  0.00000000E+00  0.00000000E+00
  0.00000000E+00  0.00000000E+00  0.00000000E+00
  0.00000000E+00  0.00000000E+00  0.00000000E+00
  0.00000000E+00  0.00000000E+00  0.00000000E+00
  0.00000000E+00  0.00000000E+00  0.00000000E+00
  0.00000000E+00  0.00000000E+00  0.00000000E+00
  0.00000000E+00  0.00000000E+00  0.00000000E+00
  0.00000000E+00  0.00000000E+00  0.00000000E+00
  0.00000000E+00  0.00000000E+00  0.00000000E+00
  0.00000000E+00  0.00000000E+00  0.00000000E+00
  0.00000000E+00  0.00000000E+00  0.00000000E+00
  0.00000000E+00  0.00000000E+00  0.00000000E+00
  0.00000000E+00  0.00000000E+00  0.00000000E+00
  0.00000000E+00  0.00000000E+00  0.00000000E+00
  0.00000000E+00  0.00000000E+00  0.00000000E+00
  0.00000000E+00  0.00000000E+00  0.00000000E+00
  0.00000000E+00  0.00000000E+00  0.00000000E+00
  0.00000000E+00  0.00000000E+00  0.00000000E+00
  0.00000000E+00  0.00000000E+00  0.00000000E+00
  0.00000000E+00  0.00000000E+00  0.00000000E+00
  0.00000000E+00  0.00000000E+00  0.00000000E+00
  0.00000000E+00  0.00000000E+00  0.00000000E+00
  0.00000000E+00  0.00000000E+00  0.00000000E+00
  0.00000000E+00  0.00000000E+00  0.00000000E+00
  0.00000000E+00  0.00000000E+00  0.00000000E+00
  0.00000000E+00  0.00000000E+00  0.00000000E+00
  0.00000000E+00  0.00000000E+00  0.00000000E+00
  0.00000000E+00  0.00000000E+00  0.00000000E+00
  0.00000000E+00  0.00000000E+00  0.00000000E+00
  0.00000000E+00  0.00000000E+00  0.00000000E+00
  0.00000000E+00  0.00000000E+00  0.00000000E+00
  0.00000000E+00  0.00000000E+00  0.00000000E+00
