 C 
 1.0000000000000000
    28.0500000000000007    0.0000000000000000    0.0000000000000000
     0.0000000000000000    8.0999999999999996    0.0000000000000000
     0.0000000000000000    0.0000000000000000   33.5000000000000000
 C  
  92
Cartesian
  0.0821948000000000  0.8531870000000000 16.5182000000000002
  0.0631525000000000  2.2283499999999998 16.4287999999999990
  1.2833500000000000  0.1777270000000000 16.3767999999999994
  1.2809999999999999  2.9001500000000000 16.2289999999999992
  2.5134900000000000  0.8912880000000000 15.9979999999999993
  2.4490699999999999  2.2519300000000002 15.9083000000000006
  3.7337799999999999  0.1899160000000000 15.8129000000000008
  3.7092100000000001  2.8698600000000001 15.7326999999999995
  4.9068800000000001  0.8399480000000000 15.4718999999999998
  4.9365199999999998  2.1675300000000002 15.5031999999999996
  6.1763500000000002  0.1943410000000000 15.3953000000000007
  6.2024299999999997  2.9257700000000000 15.3991000000000007
  7.4264599999999996  0.8307760000000000 15.3286999999999995
  7.4713000000000003  2.1934399999999998 15.3417999999999992
  8.6738000000000000  0.1537460000000000 15.3443000000000005
  8.6870799999999999  2.8515199999999998 15.4181000000000008
  9.9521499999999996  0.8263130000000000 15.3834999999999997
  9.9055900000000001  2.1679800000000000 15.5791000000000004
 11.2240000000000002  0.1798300000000000 15.4217999999999993
 11.1227999999999998  2.8575599999999999 15.9007000000000005
 12.4269999999999996  0.8402410000000000 15.6521000000000008
 12.4215000000000000  2.1872300000000000 15.9055000000000000
 13.6623000000000001  0.1720290000000000 15.9917999999999996
 13.6259999999999994  2.8487000000000000 16.2243999999999993
 14.7370999999999999  0.8419280000000000 16.5713000000000008
 14.8003000000000000  2.2109500000000000 16.7087000000000003
 15.8841999999999999  0.1875200000000000 17.1580000000000013
 15.9908000000000001  2.8628900000000002 17.1117999999999988
 17.0905999999999985  0.8221280000000000 17.6937999999999995
 17.1312999999999995  2.2113299999999998 17.6309000000000005
 18.2715999999999994  0.1787400000000000 18.0794999999999995
 18.2957000000000001  2.8660100000000002 18.0002999999999993
 19.5032999999999994  0.8113939999999999 18.4100999999999999
 19.5259999999999998  2.2023999999999999 18.3209000000000017
 20.7876000000000012  0.1876100000000000 18.4984999999999999
 20.7794999999999987  2.8527900000000002 18.4868999999999986
 21.9948000000000015  0.8604220000000000 18.3683000000000014
 22.0066999999999986  2.2344200000000001 18.3979999999999997
 23.2600000000000016  0.2413920000000000 18.1316999999999986
 23.2232999999999983  2.9102700000000001 18.0474999999999994
 24.4037000000000006  0.8744980000000000 17.6975000000000016
 24.4023000000000003  2.2834099999999999 17.7024000000000008
 25.6085999999999991  0.1929420000000000 17.3266999999999989
 25.6365000000000016  2.8799199999999998 17.3160999999999987
 26.7772000000000006  0.8442770000000001 17.0035999999999987
 26.7306999999999988  2.1877200000000001 16.8488000000000007
  0.1934850000000000  4.8558599999999998 16.8524999999999991
  0.2684110000000000  6.2305299999999999 17.0918999999999990
  1.3182900000000000  4.2070800000000004 16.5145000000000017
  1.3915299999999999  6.9692400000000001 16.7340000000000018
  2.5895800000000002  4.8756399999999998 16.3700000000000010
  2.5516500000000000  6.2591099999999997 16.3917999999999999
  3.7548100000000000  4.2441399999999998 16.0146000000000015
  3.7866200000000001  6.9282100000000000 16.0688999999999993
  5.0201599999999997  4.9229399999999996 15.8589000000000002
  5.0349800000000000  6.2796000000000003 15.8228000000000009
  6.2155800000000001  4.2337999999999996 15.6244999999999994
  6.2383100000000002  6.9454799999999999 15.5195000000000007
  7.5026799999999998  4.8583600000000002 15.6456000000000000
  7.4668000000000001  6.2130599999999996 15.5876000000000001
  8.7175999999999991  4.2328400000000004 15.5886999999999993
  8.6946200000000005  6.9004099999999999 15.4497999999999998
  9.9738199999999999  4.8368599999999997 15.5885999999999996
  9.9694299999999991  6.2044400000000000 15.5245999999999995
 11.1948000000000008  4.2122700000000002 15.8397000000000006
 11.1960999999999995  6.8701600000000003 15.5454000000000008
 12.5076999999999998  4.8510499999999999 15.8719000000000001
 12.4687999999999999  6.2311699999999997 15.7571999999999992
 13.7286000000000001  4.2139300000000004 16.1279000000000003
 13.6917000000000009  6.9237399999999996 15.9039999999999999
 14.8938000000000006  4.9108099999999997 16.4324000000000012
 14.8435000000000006  6.2453300000000000 16.3886000000000003
 16.0690999999999988  4.2308100000000000 16.9661000000000008
 15.9532000000000007  6.9475800000000003 17.1126000000000005
 17.1546999999999983  4.9297899999999997 17.5435000000000016
 17.0930000000000000  6.2777599999999998 17.5728000000000009
 18.3754999999999988  4.2542600000000004 17.8326999999999991
 18.2966000000000015  6.8981100000000000 18.0061999999999998
 19.5375000000000014  4.8741099999999999 18.1556999999999995
 19.5533999999999999  6.2601000000000004 18.1497999999999990
 20.7748999999999988  4.2318899999999999 18.2977999999999987
 20.7651000000000003  6.9092200000000004 18.4142000000000010
 22.0478999999999985  4.8986200000000002 18.3506999999999998
 22.0591000000000008  6.2705500000000001 18.3140000000000001
 23.3058000000000014  4.2578899999999997 18.2364999999999995
 23.2796999999999983  6.9504599999999996 18.1445000000000007
 24.5319000000000003  4.9242999999999997 18.0321999999999996
 24.5259000000000000  6.2758200000000004 17.9707000000000008
 25.6899000000000015  4.2162899999999999 17.5766999999999989
 25.7319999999999993  6.9279599999999997 17.6258000000000017
 26.8735999999999997  4.8623500000000002 17.2962999999999987
 26.9017000000000017  6.2017600000000002 17.5085000000000015
