 C                                      
    1.000000000000000     
    28.0500000000000007    0.0000000000000000    0.0000000000000000
     0.0000000000000000    8.0999999999999996    0.0000000000000000
     0.0000000000000000    0.0000000000000000   33.5000000000000000
   C 
    92
Direct
     0.0057460962566864    0.1036998765432102    0.4558149253731330
     0.0081589661319086    0.2738086419753074    0.4500985074626840
     0.0510196078431377    0.0288022222222253    0.4678985074626851
     0.0518424242424231    0.3481135802469169    0.4482388059701492
     0.0944071301247789    0.1021238271604972    0.4677850746268675
     0.0941347593582904    0.2686592592592589    0.4588089552238799
     0.1370367201426035    0.0229080246913611    0.4775134328358206
     0.1380901960784300    0.3549851851851855    0.4640179104477582
     0.1814983957219241    0.1100287654320979    0.4807671641791060
     0.1829358288770067    0.2758382716049397    0.4725432835820911
     0.2223226381461672    0.0298283950617275    0.4956179104477627
     0.2263885918003581    0.3601345679012340    0.4821462686567131
     0.2665304812834250    0.1040319753086436    0.4943492537313432
     0.2696452762923371    0.2684320987654303    0.4868477611940278
     0.3063297682709418    0.0234341975308610    0.5116746268656698
     0.3116427807486630    0.3558148148148135    0.5004417910447785
     0.3516834224598924    0.1028633333333318    0.5155044776119411
     0.3520381461675584    0.2726555555555521    0.5100238805970179
     0.3939786096256697    0.0274375308641979    0.5289761194029836
     0.3957504456327996    0.3597814814814839    0.5221283582089526
     0.4385204991087335    0.1086460493827133    0.5328388059701510
     0.4376541889483079    0.2771358024691324    0.5296029850746251
     0.4800106951871683    0.0262916049382724    0.5382000000000033
     0.4804705882352920    0.3586592592592623    0.5386149253731318
     0.5253511586452788    0.1040817283950588    0.5349402985074647
     0.5258360071301240    0.2770382716049369    0.5376059701492508
     0.5697611408199634    0.0189538271604945    0.5332656716417929
     0.5706951871657751    0.3529271604938273    0.5418865671641768
     0.6123707664884108    0.1050980246913582    0.5280268656716416
     0.6130303030302997    0.2734197530864222    0.5296955223880602
     0.6558110516934050    0.0206503703703689    0.5217223880597004
     0.6570017825311965    0.3503308641975309    0.5242208955223902
     0.6963565062388568    0.0998881481481462    0.5073253731343286
     0.6967379679144372    0.2726629629629613    0.5077164179104443
     0.7389304812834254    0.0151098765432067    0.5012656716417894
     0.7419144385026755    0.3586123456790133    0.4978417910447774
     0.7801960784313735    0.0973574074074079    0.4878507462686557
     0.7809590017825343    0.2633851851851858    0.4879940298507464
     0.8249162210338667    0.0149034567901225    0.4818925373134348
     0.8261853832442085    0.3539567901234548    0.4809164179104499
     0.8684491978609614    0.0968709876543201    0.4734238805970179
     0.8690374331550785    0.2690123456790090    0.4692656716417929
     0.9134331550802131    0.0118740987654320    0.4659223880597025
     0.9130695187165756    0.3530592592592612    0.4620567164179121
     0.9550160427807484    0.0972492592592573    0.4576955223880574
     0.9555008912656007    0.2738580246913571    0.4526119402985103
     0.0071400713012508    0.6050123456790146    0.4505014925373132
     0.0077576470588241    0.7763172839506183    0.4606238805970122
     0.0498516934046336    0.5222111111111118    0.4517223880597001
     0.0501151515151506    0.8542901234567921    0.4696686567164150
     0.0930652406417138    0.6061259259259231    0.4624119402985087
     0.0936000000000021    0.7685259259259283    0.4728208955223892
     0.1363657754010674    0.5202666666666644    0.4692776119402993
     0.1374249554367211    0.8546740740740759    0.4797850746268679
     0.1789051693404602    0.6071345679012339    0.4815343283582081
     0.1782313725490212    0.7714753086419748    0.4911402985074602
     0.2236021390374319    0.5283407407407381    0.4871074626865664
     0.2215839572192522    0.8523938271604976    0.5004985074626873
     0.2648110516934068    0.6066950617283950    0.4995611940298517
     0.2646862745098062    0.7720938271604965    0.5066507462686545
     0.3090680926916249    0.5213308641975303    0.5050776119403011
     0.3082598930481311    0.8564098765432107    0.5172895522388075
     0.3510727272727294    0.6031246913580262    0.5192119402985043
     0.3515080213903730    0.7739580246913604    0.5262089552238791
     0.3949055258467027    0.5268864197530831    0.5268686567164167
     0.3948306595365452    0.8587061728395042    0.5343522388059725
     0.4373975044563281    0.6106703703703715    0.5385611940298531
     0.4371372549019625    0.7796555555555571    0.5423462686567149
     0.4823315508021366    0.5240814814814811    0.5440029850746271
     0.4826916221033883    0.8566987654320997    0.5462716417910443
     0.5259928698752248    0.6069777777777787    0.5497880597014912
     0.5259607843137246    0.7705456790123435    0.5452805970149228
     0.5706274509803890    0.5220209876543223    0.5476477611940282
     0.5698288770053495    0.8561012345679018    0.5399641791044800
     0.6154188948306611    0.5997395061728383    0.5432716417910441
     0.6170944741532978    0.7673567901234577    0.5394776119402991
     0.6582388591800381    0.5160975308642008    0.5332567164179096
     0.6574438502673772    0.8565679012345697    0.5313313432835827
     0.7015472370766460    0.6021827160493842    0.5261104477611909
     0.7023386809269141    0.7744086419753060    0.5277820895522396
     0.7419821746880544    0.5216197530864193    0.5064447761194018
     0.7440463458110500    0.8546925925925919    0.5138985074626845
     0.7869126559714772    0.6029802469135817    0.5011223880596987
     0.7886024955436710    0.7751308641975285    0.5075044776119384
     0.8269625668449194    0.5239901234567910    0.4849283582089541
     0.8291586452762942    0.8564283950617266    0.4939223880597012
     0.8719964349376141    0.6011469135802443    0.4788179104477592
     0.8718395721925134    0.7701061728395047    0.4839402985074628
     0.9114652406417107    0.5228432098765410    0.4627522388059688
     0.9150267379679136    0.8483580246913576    0.4734955223880633
     0.9556470588235300    0.5968716049382721    0.4507820895522414
     0.9547985739750473    0.7733234567901235    0.4594000000000023
 
  0.00000000E+00  0.00000000E+00  0.00000000E+00
  0.00000000E+00  0.00000000E+00  0.00000000E+00
  0.00000000E+00  0.00000000E+00  0.00000000E+00
  0.00000000E+00  0.00000000E+00  0.00000000E+00
  0.00000000E+00  0.00000000E+00  0.00000000E+00
  0.00000000E+00  0.00000000E+00  0.00000000E+00
  0.00000000E+00  0.00000000E+00  0.00000000E+00
  0.00000000E+00  0.00000000E+00  0.00000000E+00
  0.00000000E+00  0.00000000E+00  0.00000000E+00
  0.00000000E+00  0.00000000E+00  0.00000000E+00
  0.00000000E+00  0.00000000E+00  0.00000000E+00
  0.00000000E+00  0.00000000E+00  0.00000000E+00
  0.00000000E+00  0.00000000E+00  0.00000000E+00
  0.00000000E+00  0.00000000E+00  0.00000000E+00
  0.00000000E+00  0.00000000E+00  0.00000000E+00
  0.00000000E+00  0.00000000E+00  0.00000000E+00
  0.00000000E+00  0.00000000E+00  0.00000000E+00
  0.00000000E+00  0.00000000E+00  0.00000000E+00
  0.00000000E+00  0.00000000E+00  0.00000000E+00
  0.00000000E+00  0.00000000E+00  0.00000000E+00
  0.00000000E+00  0.00000000E+00  0.00000000E+00
  0.00000000E+00  0.00000000E+00  0.00000000E+00
  0.00000000E+00  0.00000000E+00  0.00000000E+00
  0.00000000E+00  0.00000000E+00  0.00000000E+00
  0.00000000E+00  0.00000000E+00  0.00000000E+00
  0.00000000E+00  0.00000000E+00  0.00000000E+00
  0.00000000E+00  0.00000000E+00  0.00000000E+00
  0.00000000E+00  0.00000000E+00  0.00000000E+00
  0.00000000E+00  0.00000000E+00  0.00000000E+00
  0.00000000E+00  0.00000000E+00  0.00000000E+00
  0.00000000E+00  0.00000000E+00  0.00000000E+00
  0.00000000E+00  0.00000000E+00  0.00000000E+00
  0.00000000E+00  0.00000000E+00  0.00000000E+00
  0.00000000E+00  0.00000000E+00  0.00000000E+00
  0.00000000E+00  0.00000000E+00  0.00000000E+00
  0.00000000E+00  0.00000000E+00  0.00000000E+00
  0.00000000E+00  0.00000000E+00  0.00000000E+00
  0.00000000E+00  0.00000000E+00  0.00000000E+00
  0.00000000E+00  0.00000000E+00  0.00000000E+00
  0.00000000E+00  0.00000000E+00  0.00000000E+00
  0.00000000E+00  0.00000000E+00  0.00000000E+00
  0.00000000E+00  0.00000000E+00  0.00000000E+00
  0.00000000E+00  0.00000000E+00  0.00000000E+00
  0.00000000E+00  0.00000000E+00  0.00000000E+00
  0.00000000E+00  0.00000000E+00  0.00000000E+00
  0.00000000E+00  0.00000000E+00  0.00000000E+00
  0.00000000E+00  0.00000000E+00  0.00000000E+00
  0.00000000E+00  0.00000000E+00  0.00000000E+00
  0.00000000E+00  0.00000000E+00  0.00000000E+00
  0.00000000E+00  0.00000000E+00  0.00000000E+00
  0.00000000E+00  0.00000000E+00  0.00000000E+00
  0.00000000E+00  0.00000000E+00  0.00000000E+00
  0.00000000E+00  0.00000000E+00  0.00000000E+00
  0.00000000E+00  0.00000000E+00  0.00000000E+00
  0.00000000E+00  0.00000000E+00  0.00000000E+00
  0.00000000E+00  0.00000000E+00  0.00000000E+00
  0.00000000E+00  0.00000000E+00  0.00000000E+00
  0.00000000E+00  0.00000000E+00  0.00000000E+00
  0.00000000E+00  0.00000000E+00  0.00000000E+00
  0.00000000E+00  0.00000000E+00  0.00000000E+00
  0.00000000E+00  0.00000000E+00  0.00000000E+00
  0.00000000E+00  0.00000000E+00  0.00000000E+00
  0.00000000E+00  0.00000000E+00  0.00000000E+00
  0.00000000E+00  0.00000000E+00  0.00000000E+00
  0.00000000E+00  0.00000000E+00  0.00000000E+00
  0.00000000E+00  0.00000000E+00  0.00000000E+00
  0.00000000E+00  0.00000000E+00  0.00000000E+00
  0.00000000E+00  0.00000000E+00  0.00000000E+00
  0.00000000E+00  0.00000000E+00  0.00000000E+00
  0.00000000E+00  0.00000000E+00  0.00000000E+00
  0.00000000E+00  0.00000000E+00  0.00000000E+00
  0.00000000E+00  0.00000000E+00  0.00000000E+00
  0.00000000E+00  0.00000000E+00  0.00000000E+00
  0.00000000E+00  0.00000000E+00  0.00000000E+00
  0.00000000E+00  0.00000000E+00  0.00000000E+00
  0.00000000E+00  0.00000000E+00  0.00000000E+00
  0.00000000E+00  0.00000000E+00  0.00000000E+00
  0.00000000E+00  0.00000000E+00  0.00000000E+00
  0.00000000E+00  0.00000000E+00  0.00000000E+00
  0.00000000E+00  0.00000000E+00  0.00000000E+00
  0.00000000E+00  0.00000000E+00  0.00000000E+00
  0.00000000E+00  0.00000000E+00  0.00000000E+00
  0.00000000E+00  0.00000000E+00  0.00000000E+00
  0.00000000E+00  0.00000000E+00  0.00000000E+00
  0.00000000E+00  0.00000000E+00  0.00000000E+00
  0.00000000E+00  0.00000000E+00  0.00000000E+00
  0.00000000E+00  0.00000000E+00  0.00000000E+00
  0.00000000E+00  0.00000000E+00  0.00000000E+00
  0.00000000E+00  0.00000000E+00  0.00000000E+00
  0.00000000E+00  0.00000000E+00  0.00000000E+00
  0.00000000E+00  0.00000000E+00  0.00000000E+00
  0.00000000E+00  0.00000000E+00  0.00000000E+00
