 C 
 1.0000000000000000
    28.0500000000000007    0.0000000000000000    0.0000000000000000
     0.0000000000000000    8.0999999999999996    0.0000000000000000
     0.0000000000000000    0.0000000000000000   33.5000000000000000
 C  
  92
Cartesian
  0.1611780000000000  0.8399690000000000 15.2698000000000000
  0.2288590000000000  2.2178499999999999 15.0783000000000005
  1.4311000000000000  0.2332980000000000 15.6745999999999999
  1.4541800000000000  2.8197199999999998 15.0160000000000000
  2.6481200000000000  0.8272030000000000 15.6707999999999998
  2.6404800000000002  2.1761400000000002 15.3701000000000008
  3.8438800000000000  0.1855550000000000 15.9967000000000006
  3.8734299999999999  2.8753799999999998 15.5446000000000009
  5.0910299999999999  0.8912330000000001 16.1056999999999988
  5.1313500000000003  2.2342900000000001 15.8301999999999996
  6.2361500000000003  0.2416100000000000 16.6032000000000011
  6.3502000000000001  2.9170900000000000 16.1519000000000013
  7.4761800000000003  0.8426590000000000 16.5607000000000006
  7.5635500000000002  2.1743000000000001 16.3094000000000001
  8.5925499999999992  0.1898170000000000 17.1411000000000016
  8.7415800000000008  2.8820999999999999 16.7648000000000010
  9.8647200000000002  0.8331930000000000 17.2694000000000010
  9.8746700000000001  2.2085100000000000 17.0857999999999990
 11.0510999999999999  0.2222440000000000 17.7207000000000008
 11.1007999999999996  2.9142299999999999 17.4912999999999990
 12.3004999999999995  0.8800330000000000 17.8501000000000012
 12.2761999999999993  2.2448000000000001 17.7417000000000016
 13.4642999999999997  0.2129620000000000 18.0296999999999983
 13.4771999999999998  2.9051399999999998 18.0436000000000014
 14.7361000000000004  0.8430620000000000 17.9205000000000005
 14.7497000000000007  2.2440099999999998 18.0097999999999985
 15.9817999999999998  0.1535260000000000 17.8643999999999998
 16.0079999999999991  2.8587099999999999 18.1531999999999982
 17.1769999999999996  0.8512940000000000 17.6889000000000003
 17.1954999999999991  2.2147000000000001 17.7448000000000015
 18.3954999999999984  0.1672680000000000 17.4776999999999987
 18.4288999999999987  2.8376800000000002 17.5613999999999990
 19.5328000000000017  0.8090940000000000 16.9954000000000001
 19.5435000000000016  2.2085699999999999 17.0085000000000015
 20.7270000000000003  0.1223900000000000 16.7924000000000007
 20.8107000000000006  2.9047600000000000 16.6777000000000015
 21.8844999999999992  0.7885950000000000 16.3430000000000000
 21.9058999999999990  2.1334200000000001 16.3477999999999994
 23.1388999999999996  0.1207180000000000 16.1433999999999997
 23.1744999999999983  2.8670499999999999 16.1107000000000014
 24.3599999999999994  0.7846550000000000 15.8597000000000001
 24.3765000000000001  2.1789999999999998 15.7203999999999997
 25.6218000000000004  0.0961802000000000 15.6083999999999996
 25.6115999999999993  2.8597800000000002 15.4788999999999994
 26.7881999999999998  0.7877189999999999 15.3328000000000007
 26.8018000000000001  2.2182499999999998 15.1624999999999996
  0.2002790000000000  4.9005999999999998 15.0917999999999992
  0.2176020000000000  6.2881700000000000 15.4308999999999994
  1.3983399999999999  4.2299100000000003 15.1326999999999998
  1.4057299999999999  6.9197499999999996 15.7339000000000002
  2.6104799999999999  4.9096200000000003 15.4908000000000001
  2.6254800000000000  6.2250600000000000 15.8394999999999992
  3.8250600000000001  4.2141599999999997 15.7208000000000006
  3.8547699999999998  6.9228600000000000 16.0728000000000009
  5.0182900000000004  4.9177900000000001 16.1313999999999993
  4.9993900000000000  6.2489499999999998 16.4531999999999989
  6.2720399999999996  4.2795600000000000 16.3181000000000012
  6.2154299999999996  6.9043900000000002 16.7667000000000002
  7.4279500000000001  4.9142299999999999 16.7352999999999987
  7.4244500000000002  6.2539600000000002 16.9727999999999994
  8.6693599999999993  4.2227800000000002 16.9201000000000015
  8.6466899999999995  6.9369199999999998 17.3292000000000002
  9.8475900000000003  4.8853099999999996 17.3935999999999993
  9.8597999999999999  6.2690599999999996 17.6280000000000001
 11.0770999999999997  4.2677800000000001 17.6500999999999983
 11.0749999999999993  6.9555199999999999 17.9008000000000003
 12.2690000000000001  4.9464300000000003 18.0417999999999985
 12.2616999999999994  6.3152100000000004 18.1686000000000014
 13.5294000000000008  4.2450599999999996 18.2241000000000000
 13.5395000000000003  6.9392600000000000 18.3001000000000005
 14.7540999999999993  4.9165200000000002 18.4178999999999995
 14.7531999999999996  6.2414199999999997 18.2668999999999997
 16.0061000000000000  4.2283700000000000 18.3461999999999996
 15.9837000000000007  6.9344200000000003 18.0887999999999991
 17.2624999999999993  4.8578900000000003 18.1996000000000002
 17.3094999999999999  6.2155899999999997 18.0725000000000016
 18.4635999999999996  4.1803900000000001 17.8641000000000005
 18.4412999999999982  6.9382000000000001 17.7996000000000016
 19.6783999999999999  4.8776799999999998 17.6247000000000007
 19.7006000000000014  6.2727100000000000 17.6807000000000016
 20.8125999999999998  4.2251200000000004 16.9659000000000013
 20.8704999999999998  6.9230099999999997 17.2155999999999985
 22.0729000000000006  4.8841400000000004 16.7876000000000012
 22.1203000000000003  6.2785599999999997 17.0014000000000003
 23.1963000000000008  4.2443200000000001 16.2451000000000008
 23.2578999999999994  6.9370700000000003 16.5463999999999984
 24.4594999999999985  4.8692900000000003 16.0404000000000018
 24.4551000000000016  6.2378600000000004 16.2119999999999997
 25.5666000000000011  4.2350300000000001 15.5022000000000002
 25.6664999999999992  6.8716999999999997 15.8620999999999999
 26.8059000000000012  4.8346600000000004 15.1012000000000004
 26.7820999999999998  6.2639199999999997 15.3899000000000008
