 C                                      
    1.000000000000000     
    28.0500000000000007    0.0000000000000000    0.0000000000000000
     0.0000000000000000    8.0999999999999996    0.0000000000000000
     0.0000000000000000    0.0000000000000000   33.5000000000000000
   C 
    92
Direct
     0.0231355793226413    0.1314876543209849    0.5230328358208922
     0.0234490909090894    0.3017987654320962    0.5239432835820921
     0.0646606060606061    0.0469545679012313    0.5168268656716393
     0.0676812834224592    0.3766765432098751    0.5245462686567137
     0.1099700534759336    0.1274493827160512    0.5164716417910427
     0.1101543672014245    0.2933839506172831    0.5198656716417887
     0.1532730837789629    0.0386849382716079    0.5051522388059695
     0.1522392156862722    0.3750308641975337    0.5095820895522394
     0.1976103386809243    0.1268246913580242    0.5001223880597010
     0.1967518716577530    0.2983345679012359    0.4985283582089579
     0.2381062388591815    0.0461698765432104    0.4871402985074624
     0.2355237076648820    0.3766888888888857    0.4814119402985071
     0.2804053475935859    0.1262790123456767    0.4738776119402957
     0.2774270944741559    0.2910209876543206    0.4669880597014924
     0.3224231729055234    0.0366237037037038    0.4664417910447796
     0.3195365418894838    0.3704666666666654    0.4536955223880597
     0.3652905525846677    0.1174670370370379    0.4559164179104442
     0.3641675579322623    0.2897999999999996    0.4543402985074607
     0.4070481283422467    0.0415037037037038    0.4472865671641770
     0.4073368983957195    0.3651703703703717    0.4478358208955200
     0.4517290552584683    0.1231385185185161    0.4499641791044766
     0.4538894830659501    0.2894493827160503    0.4445701492537282
     0.4959500891265591    0.0423485185185157    0.4425552238805963
     0.4962174688057033    0.3669234567901256    0.4347611940298535
     0.5398716577540128    0.1252740740740705    0.4462955223880627
     0.5398752228163985    0.2899641975308640    0.4387761194029878
     0.5817540106951853    0.0361324691358007    0.4476358208955205
     0.5847486631016068    0.3693691358024722    0.4357164179104487
     0.6259679144385046    0.1139465432098774    0.4523611940298480
     0.6290338680926908    0.2873555555555569    0.4438119402985095
     0.6694438502673776    0.0342286419753108    0.4603820895522404
     0.6734616755793255    0.3683407407407415    0.4457492537313428
     0.7128877005347576    0.1240271604938243    0.4684119402985090
     0.7148306595365455    0.2864098765432104    0.4618955223880619
     0.7565846702317316    0.0406751851851865    0.4763970149253751
     0.7583565062388615    0.3769407407407428    0.4665074626865646
     0.8004741532976851    0.1262814814814845    0.4879462686567138
     0.8005169340463425    0.2973012345679038    0.4856328358208941
     0.8426488413547233    0.0497844444444411    0.4971522388059668
     0.8451372549019638    0.3826654320987686    0.4911373134328372
     0.8844991087344027    0.1331765432098777    0.5118119402985073
     0.8852798573975065    0.3086098765432084    0.5094149253731359
     0.9268627450980418    0.0450524691358041    0.5193402985074655
     0.9295543672014261    0.3861296296296288    0.5129791044776084
     0.9695401069518681    0.1276382716049369    0.5258507462686595
     0.9708698752228173    0.3010358024691371    0.5229552238805937
     0.0244948663101638    0.6304172839506208    0.5153462686567138
     0.0211686274509830    0.8018592592592597    0.5160208955223879
     0.0662688057040981    0.5470987654320965    0.5219313432835833
     0.0648930481283401    0.8785567901234543    0.5184865671641816
     0.1079928698752255    0.6248308641975342    0.5091313432835847
     0.1079811051693440    0.7925703703703704    0.5076805970149252
     0.1503290552584673    0.5431728395061697    0.5007223880596996
     0.1515768270944733    0.8715037037037021    0.5025343283582089
     0.1915112299465207    0.6262987654320966    0.4852119402985053
     0.1938859180035664    0.7926271604938293    0.4890626865671663
     0.2339119429590042    0.5420320987654321    0.4742179104477628
     0.2376909090909081    0.8726259259259237    0.4840328358208978
     0.2740534759358297    0.6187049382716054    0.4589671641791071
     0.2758360071301240    0.7839827160493797    0.4655373134328329
     0.3180153297682722    0.5374469135802471    0.4481940298507467
     0.3182338680926904    0.8673888888888897    0.4571611940298510
     0.3623885918003538    0.6175827160493839    0.4423134328358174
     0.3632442067736150    0.7847679012345665    0.4455910447761227
     0.4061105169340493    0.5314283950617309    0.4387701492537346
     0.4083814616755816    0.8696728395061726    0.4431194029850758
     0.4510409982174721    0.6190580246913555    0.4317582089552232
     0.4513012477718377    0.7901444444444436    0.4348835820895545
     0.4951336898395695    0.5394419753086410    0.4310119402985109
     0.4963707664884112    0.8715271604938266    0.4346507462686588
     0.5403279857397507    0.6230271604938267    0.4259134328358201
     0.5406452762923379    0.7863481481481500    0.4317940298507494
     0.5850124777183581    0.5403296296296318    0.4291253731343261
     0.5844349376114053    0.8674271604938255    0.4395880597014923
     0.6306488413547271    0.6178716049382729    0.4307164179104461
     0.6293547237076638    0.7863419753086447    0.4384507462686571
     0.6752905525846700    0.5398703703703731    0.4363611940298497
     0.6711479500891286    0.8692777777777749    0.4568447761194037
     0.7192655971479525    0.6245037037037022    0.4447074626865657
     0.7157397504456355    0.7877839506172819    0.4565611940298524
     0.7639679144385028    0.5395716049382742    0.4573074626865647
     0.7554367201426047    0.8779320987654344    0.4711552238805936
     0.8036577540106933    0.6290777777777805    0.4706567164179134
     0.8021532976827075    0.7958049382716084    0.4749522388059688
     0.8460819964349398    0.5425012345679008    0.4803402985074641
     0.8437183600712999    0.8774716049382718    0.4901253731343260
     0.8906880570409967    0.6294493827160466    0.4876447761194029
     0.8865204991087339    0.7961185185185187    0.4928985074626837
     0.9321497326203243    0.5457345679012349    0.5018716417910412
     0.9281853832442053    0.8750444444444412    0.5103044776119390
     0.9735650623885945    0.6239333333333335    0.5102865671641794
     0.9704741532976797    0.7972024691358044    0.5137820895522367
 
  0.00000000E+00  0.00000000E+00  0.00000000E+00
  0.00000000E+00  0.00000000E+00  0.00000000E+00
  0.00000000E+00  0.00000000E+00  0.00000000E+00
  0.00000000E+00  0.00000000E+00  0.00000000E+00
  0.00000000E+00  0.00000000E+00  0.00000000E+00
  0.00000000E+00  0.00000000E+00  0.00000000E+00
  0.00000000E+00  0.00000000E+00  0.00000000E+00
  0.00000000E+00  0.00000000E+00  0.00000000E+00
  0.00000000E+00  0.00000000E+00  0.00000000E+00
  0.00000000E+00  0.00000000E+00  0.00000000E+00
  0.00000000E+00  0.00000000E+00  0.00000000E+00
  0.00000000E+00  0.00000000E+00  0.00000000E+00
  0.00000000E+00  0.00000000E+00  0.00000000E+00
  0.00000000E+00  0.00000000E+00  0.00000000E+00
  0.00000000E+00  0.00000000E+00  0.00000000E+00
  0.00000000E+00  0.00000000E+00  0.00000000E+00
  0.00000000E+00  0.00000000E+00  0.00000000E+00
  0.00000000E+00  0.00000000E+00  0.00000000E+00
  0.00000000E+00  0.00000000E+00  0.00000000E+00
  0.00000000E+00  0.00000000E+00  0.00000000E+00
  0.00000000E+00  0.00000000E+00  0.00000000E+00
  0.00000000E+00  0.00000000E+00  0.00000000E+00
  0.00000000E+00  0.00000000E+00  0.00000000E+00
  0.00000000E+00  0.00000000E+00  0.00000000E+00
  0.00000000E+00  0.00000000E+00  0.00000000E+00
  0.00000000E+00  0.00000000E+00  0.00000000E+00
  0.00000000E+00  0.00000000E+00  0.00000000E+00
  0.00000000E+00  0.00000000E+00  0.00000000E+00
  0.00000000E+00  0.00000000E+00  0.00000000E+00
  0.00000000E+00  0.00000000E+00  0.00000000E+00
  0.00000000E+00  0.00000000E+00  0.00000000E+00
  0.00000000E+00  0.00000000E+00  0.00000000E+00
  0.00000000E+00  0.00000000E+00  0.00000000E+00
  0.00000000E+00  0.00000000E+00  0.00000000E+00
  0.00000000E+00  0.00000000E+00  0.00000000E+00
  0.00000000E+00  0.00000000E+00  0.00000000E+00
  0.00000000E+00  0.00000000E+00  0.00000000E+00
  0.00000000E+00  0.00000000E+00  0.00000000E+00
  0.00000000E+00  0.00000000E+00  0.00000000E+00
  0.00000000E+00  0.00000000E+00  0.00000000E+00
  0.00000000E+00  0.00000000E+00  0.00000000E+00
  0.00000000E+00  0.00000000E+00  0.00000000E+00
  0.00000000E+00  0.00000000E+00  0.00000000E+00
  0.00000000E+00  0.00000000E+00  0.00000000E+00
  0.00000000E+00  0.00000000E+00  0.00000000E+00
  0.00000000E+00  0.00000000E+00  0.00000000E+00
  0.00000000E+00  0.00000000E+00  0.00000000E+00
  0.00000000E+00  0.00000000E+00  0.00000000E+00
  0.00000000E+00  0.00000000E+00  0.00000000E+00
  0.00000000E+00  0.00000000E+00  0.00000000E+00
  0.00000000E+00  0.00000000E+00  0.00000000E+00
  0.00000000E+00  0.00000000E+00  0.00000000E+00
  0.00000000E+00  0.00000000E+00  0.00000000E+00
  0.00000000E+00  0.00000000E+00  0.00000000E+00
  0.00000000E+00  0.00000000E+00  0.00000000E+00
  0.00000000E+00  0.00000000E+00  0.00000000E+00
  0.00000000E+00  0.00000000E+00  0.00000000E+00
  0.00000000E+00  0.00000000E+00  0.00000000E+00
  0.00000000E+00  0.00000000E+00  0.00000000E+00
  0.00000000E+00  0.00000000E+00  0.00000000E+00
  0.00000000E+00  0.00000000E+00  0.00000000E+00
  0.00000000E+00  0.00000000E+00  0.00000000E+00
  0.00000000E+00  0.00000000E+00  0.00000000E+00
  0.00000000E+00  0.00000000E+00  0.00000000E+00
  0.00000000E+00  0.00000000E+00  0.00000000E+00
  0.00000000E+00  0.00000000E+00  0.00000000E+00
  0.00000000E+00  0.00000000E+00  0.00000000E+00
  0.00000000E+00  0.00000000E+00  0.00000000E+00
  0.00000000E+00  0.00000000E+00  0.00000000E+00
  0.00000000E+00  0.00000000E+00  0.00000000E+00
  0.00000000E+00  0.00000000E+00  0.00000000E+00
  0.00000000E+00  0.00000000E+00  0.00000000E+00
  0.00000000E+00  0.00000000E+00  0.00000000E+00
  0.00000000E+00  0.00000000E+00  0.00000000E+00
  0.00000000E+00  0.00000000E+00  0.00000000E+00
  0.00000000E+00  0.00000000E+00  0.00000000E+00
  0.00000000E+00  0.00000000E+00  0.00000000E+00
  0.00000000E+00  0.00000000E+00  0.00000000E+00
  0.00000000E+00  0.00000000E+00  0.00000000E+00
  0.00000000E+00  0.00000000E+00  0.00000000E+00
  0.00000000E+00  0.00000000E+00  0.00000000E+00
  0.00000000E+00  0.00000000E+00  0.00000000E+00
  0.00000000E+00  0.00000000E+00  0.00000000E+00
  0.00000000E+00  0.00000000E+00  0.00000000E+00
  0.00000000E+00  0.00000000E+00  0.00000000E+00
  0.00000000E+00  0.00000000E+00  0.00000000E+00
  0.00000000E+00  0.00000000E+00  0.00000000E+00
  0.00000000E+00  0.00000000E+00  0.00000000E+00
  0.00000000E+00  0.00000000E+00  0.00000000E+00
  0.00000000E+00  0.00000000E+00  0.00000000E+00
  0.00000000E+00  0.00000000E+00  0.00000000E+00
  0.00000000E+00  0.00000000E+00  0.00000000E+00
