 C 
 1.0000000000000000
    28.0500000000000007    0.0000000000000000    0.0000000000000000
     0.0000000000000000    8.0999999999999996    0.0000000000000000
     0.0000000000000000    0.0000000000000000   33.5000000000000000
 C  
  92
Cartesian
  0.6489530000000000  1.0650500000000001 17.5215999999999994
  0.6577470000000000  2.4445700000000001 17.5520999999999994
  1.8137300000000001  0.3803320000000000 17.3137000000000008
  1.8984600000000000  3.0510799999999998 17.5722999999999985
  3.0846600000000000  1.0323400000000000 17.3018000000000001
  3.0898300000000001  2.3764099999999999 17.4155000000000015
  4.2993100000000002  0.3133480000000000 16.9225999999999992
  4.2703100000000003  3.0377500000000000 17.0710000000000015
  5.5429700000000004  1.0272800000000000 16.7541000000000011
  5.5188899999999999  2.4165100000000002 16.7007000000000012
  6.6788800000000004  0.3739760000000000 16.3191999999999986
  6.6064400000000001  3.0511800000000000 16.1273000000000017
  7.8653700000000004  1.0228600000000001 15.8749000000000002
  7.7818300000000002  2.3572700000000002 15.6440999999999999
  9.0439699999999998  0.2966520000000000 15.6257999999999999
  8.9629999999999992  3.0007799999999998 15.1988000000000003
 10.2463999999999995  0.9514830000000000 15.2731999999999992
 10.2149000000000001  2.3473799999999998 15.2203999999999997
 11.4177000000000000  0.3361800000000000 14.9840999999999998
 11.4258000000000006  2.9578799999999998 15.0024999999999995
 12.6709999999999994  0.9974220000000000 15.0738000000000003
 12.7316000000000003  2.3445399999999998 14.8931000000000004
 13.9114000000000004  0.3430230000000000 14.8255999999999997
 13.9189000000000007  2.9720800000000001 14.5645000000000007
 15.1433999999999997  1.0147200000000001 14.9509000000000007
 15.1434999999999995  2.3487100000000001 14.6989999999999998
 16.3182000000000009  0.2926730000000000 14.9957999999999991
 16.4022000000000006  2.9918900000000002 14.5965000000000007
 17.5583999999999989  0.9229670000000000 15.1540999999999997
 17.6444000000000010  2.3275800000000002 14.8676999999999992
 18.7778999999999989  0.2772520000000000 15.4228000000000005
 18.8905999999999992  2.9835600000000002 14.9326000000000008
 19.9965000000000011  1.0046200000000001 15.6918000000000006
 20.0509999999999984  2.3199200000000002 15.4734999999999996
 21.2222000000000008  0.3294690000000000 15.9593000000000007
 21.2718999999999987  3.0532200000000000 15.6280000000000001
 22.4532999999999987  1.0228800000000000 16.3461999999999996
 22.4544999999999995  2.4081399999999999 16.2686999999999991
 23.6362999999999985  0.4032540000000000 16.6545999999999985
 23.7060999999999993  3.0995900000000001 16.4530999999999992
 24.8101999999999983  1.0787300000000000 17.1457000000000015
 24.8321000000000005  2.4997400000000001 17.0654000000000003
 25.9984999999999999  0.3649250000000000 17.3978999999999999
 26.0740000000000016  3.1276500000000000 17.1847999999999992
 27.1955999999999989  1.0338700000000001 17.6159999999999997
 27.2329000000000008  2.4383900000000001 17.5189999999999984
  0.6870810000000001  5.1063799999999997 17.2640999999999991
  0.5937800000000000  6.4950599999999996 17.2866999999999997
  1.8588400000000000  4.4314999999999998 17.4847000000000001
  1.8202499999999999  7.1163100000000004 17.3692999999999991
  3.0291999999999999  5.0611300000000004 17.0559000000000012
  3.0288700000000000  6.4198199999999996 17.0073000000000008
  4.2167300000000001  4.3997000000000002 16.7742000000000004
  4.2517300000000002  7.0591799999999996 16.8349000000000011
  5.3718899999999996  5.0730199999999996 16.2545999999999999
  5.4385000000000003  6.4202800000000000 16.3836000000000013
  6.5612300000000001  4.3904600000000000 15.8863000000000003
  6.6672300000000000  7.0682700000000001 16.2150999999999996
  7.6871999999999998  5.0115100000000004 15.3754000000000008
  7.7371999999999996  6.3502599999999996 15.5954999999999995
  8.9203299999999999  4.3533200000000001 15.0145000000000000
  8.9264600000000005  7.0258500000000002 15.3148999999999997
 10.1649999999999991  5.0024199999999999 14.8175000000000008
 10.1890000000000001  6.3566200000000004 14.9273000000000007
 11.3914000000000009  4.3045700000000000 14.6988000000000003
 11.4550999999999998  7.0443499999999997 14.8445000000000000
 12.6516999999999999  5.0143700000000004 14.4639000000000006
 12.6590000000000007  6.4001700000000001 14.5686000000000000
 13.8885000000000005  4.3694800000000003 14.4389000000000003
 13.9231999999999996  7.0593700000000004 14.5608000000000004
 15.1562000000000001  5.0465200000000001 14.2681000000000004
 15.1651000000000007  6.3694199999999999 14.4650999999999996
 16.4096000000000011  4.3766699999999998 14.3757000000000001
 16.3933999999999997  7.0261600000000000 14.7262000000000004
 17.6896999999999984  5.0047600000000001 14.4290000000000003
 17.6534000000000013  6.3693700000000000 14.6881000000000004
 18.9419000000000004  4.3729500000000003 14.6181000000000001
 18.8257000000000012  7.0411500000000000 15.3042999999999996
 20.1753999999999998  5.0584800000000003 14.8977000000000004
 20.0764999999999993  6.3810500000000001 15.2948000000000004
 21.4293000000000013  4.3705299999999996 15.3198000000000008
 21.1900000000000013  7.1112500000000001 15.7836999999999996
 22.5426000000000002  5.0955300000000001 15.7669999999999995
 22.5003999999999991  6.4460199999999999 15.9108999999999998
 23.7326000000000015  4.3942600000000001 16.0914000000000001
 23.6662999999999997  7.1075200000000001 16.4192000000000000
 24.9837999999999987  5.0985399999999998 16.3360999999999983
 24.8669000000000011  6.4485599999999996 16.5121000000000002
 26.1467999999999989  4.4204499999999998 16.8126999999999995
 26.0355999999999987  7.0878600000000000 17.0951999999999984
 27.3084999999999987  5.0538600000000002 17.0945999999999998
 27.2218000000000018  6.4573400000000003 17.2117000000000004
