 C                                      
    1.000000000000000     
    28.0500000000000007    0.0000000000000000    0.0000000000000000
     0.0000000000000000    8.0999999999999996    0.0000000000000000
     0.0000000000000000    0.0000000000000000   33.5000000000000000
   C 
    92
Direct
     0.1759065953654186    0.8326617283950597    0.6723582089552238
     0.1768438502673817    0.0024043703703711    0.6681492537313432
     0.2145094474153311    0.7474209876543227    0.6888358208955196
     0.2152887700534762    0.0889643209876567    0.6843880597014902
     0.2563244206773589    0.8304123456790151    0.6965671641791076
     0.2576481283422467    0.0037967407407393    0.6937611940298467
     0.2998581105169364    0.7513358024691357    0.7082388059701543
     0.2982538324420645    0.0822518518518507    0.7057910447761202
     0.3437090909090941    0.8366666666666660    0.7096716417910471
     0.3433793226381496    0.0058366913580272    0.7094626865671643
     0.3869590017825288    0.7537506172839485    0.7136417910447790
     0.3878787878787904    0.0857883950617264    0.7146567164179132
     0.4318752228164016    0.8348382716049372    0.7098507462686570
     0.4314616755793210    0.0019020370370342    0.7085074626865691
     0.4751016042780734    0.7467444444444453    0.7057910447761202
     0.4749839572192514    0.0852088888888858    0.7026865671641787
     0.5173761140819977    0.8305753086419756    0.6911343283582099
     0.5175543672014271    0.9989259259259242    0.6896716417910511
     0.5612941176470585    0.7549086419753053    0.6810149253731339
     0.5602032085561461    0.0853822222222220    0.6799104477611948
     0.6004884135472395    0.8341641975308676    0.6630447761194063
     0.6008556149732627    0.0022482962962940    0.6652238805970114
     0.6429803921568649    0.7476493827160482    0.6534925373134399
     0.6457433155080210    0.0824285185185190    0.6576716417910475
     0.6855008912655975    0.8301395061728414    0.6387164179104445
     0.6870231729055263    0.0013406296296310    0.6414925373134324
     0.7282032085561525    0.7459308641975326    0.6297313432835807
     0.7306702317290572    0.0781187654321016    0.6374925373134346
     0.7712442067736163    0.8258481481481468    0.6218805970149219
     0.7728306595365453    0.9965481481481504    0.6257313432835829
     0.8176042780748674    0.7448024691358057    0.6170746268656728
     0.8183529411764709    0.0802834567901201    0.6216417910447802
     0.8625739750445618    0.8286518518518520    0.6154328358208971
     0.8625383244206759    0.9981271604938300    0.6164776119402973
     0.9077932263814645    0.7491246913580270    0.6193432835820900
     0.9072976827094479    0.0829580246913579    0.6219402985074680
     0.9540463458110509    0.8331024691358024    0.6208059701492559
     0.9526951871657729    0.0014429135802487    0.6240597014925413
     0.9966238859180052    0.7479839506172823    0.6321791044776148
     0.9963422459893039    0.0832617283950583    0.6348059701492517
     0.0415718360071295    0.8335308641975274    0.6391940298507421
     0.0413839572192529    0.0060640617283951    0.6396417910447809
     0.0824160427807499    0.7501938271604942    0.6542686567164182
     0.0830310160427814    0.0912262962962984    0.6510149253731328
     0.1258812834224585    0.8372012345678996    0.6587164179104477
     0.1257622103386780    0.0038363950617253    0.6575522388059696
     0.1681062388591812    0.3327024691358034    0.6914925373134366
     0.1685679144385048    0.5014135802469113    0.6925373134328368
     0.2122360071301230    0.2504938271604971    0.6952537313432856
     0.2105668449197893    0.5827938271604935    0.6985373134328370
     0.2547543672014285    0.3335814814814810    0.7075223880597008
     0.2534987522281611    0.5044802469135803    0.7098507462686570
     0.2976862745098003    0.2502333333333340    0.7133731343283642
     0.2972798573975055    0.5834567901234564    0.7141492537313425
     0.3417557932263833    0.3343851851851838    0.7214626865671647
     0.3411985739750421    0.5050160493827178    0.7216716417910476
     0.3872869875222804    0.2549518518518497    0.7211343283582110
     0.3866417112299487    0.5876024691358026    0.7197611940298501
     0.4315008912655998    0.3349938271604955    0.7179402985074645
     0.4306595365418886    0.5024456790123466    0.7180000000000035
     0.4760677361853851    0.2530802469135836    0.7094925373134373
     0.4760784313725495    0.5794679012345654    0.7105074626865644
     0.5202638146167544    0.3319925925925915    0.7028059701492566
     0.5202852049910902    0.5025049382716062    0.7034925373134371
     0.5622602495543703    0.2497456790123422    0.6881492537313392
     0.5619180035650615    0.5858777777777746    0.6899402985074659
     0.6053190730837770    0.3327716049382730    0.6788059701492557
     0.6053832442067772    0.5027012345679012    0.6788955223880606
     0.6461176470588228    0.2485851851851848    0.6653731343283624
     0.6457754010695211    0.5828469135802479    0.6605970149253722
     0.6888663101604280    0.3304049382716059    0.6547761194029817
     0.6894652406417094    0.4989333333333335    0.6522985074626888
     0.7312584670231743    0.2460469135802441    0.6436417910447716
     0.7295401069518732    0.5753197530864185    0.6362686567164246
     0.7742923351158666    0.3261111111111106    0.6353731343283613
     0.7740106951871653    0.4965592592592571    0.6328358208955223
     0.8181818181818201    0.2447358024691368    0.6294626865671660
     0.8178110516934041    0.5778259259259286    0.6236417910447756
     0.8621675579322670    0.3266592592592588    0.6296119402985028
     0.8617183600713005    0.4976864197530873    0.6262089552238805
     0.9076256684491995    0.2456592592592628    0.6302388059701514
     0.9062424242424214    0.5833185185185172    0.6257910447761219
     0.9511764705882371    0.3306246913580253    0.6373432835820907
     0.9503386809269188    0.4995753086419725    0.6360000000000028
     0.9936399286987552    0.2475567901234541    0.6437014925373177
     0.9943315508021371    0.5826160493827146    0.6405970149253761
     0.0359493761140826    0.3291950617283916    0.6556417910447792
     0.0362442067736168    0.5014876543209894    0.6545671641791060
     0.0792167557932260    0.2526716049382713    0.6636119402985088
     0.0804196078431403    0.5870493827160459    0.6622686567164209
     0.1179379679144361    0.3338148148148150    0.6801791044776095
     0.1178174688057041    0.5043469135802496    0.6802089552238826
 
  0.00000000E+00  0.00000000E+00  0.00000000E+00
  0.00000000E+00  0.00000000E+00  0.00000000E+00
  0.00000000E+00  0.00000000E+00  0.00000000E+00
  0.00000000E+00  0.00000000E+00  0.00000000E+00
  0.00000000E+00  0.00000000E+00  0.00000000E+00
  0.00000000E+00  0.00000000E+00  0.00000000E+00
  0.00000000E+00  0.00000000E+00  0.00000000E+00
  0.00000000E+00  0.00000000E+00  0.00000000E+00
  0.00000000E+00  0.00000000E+00  0.00000000E+00
  0.00000000E+00  0.00000000E+00  0.00000000E+00
  0.00000000E+00  0.00000000E+00  0.00000000E+00
  0.00000000E+00  0.00000000E+00  0.00000000E+00
  0.00000000E+00  0.00000000E+00  0.00000000E+00
  0.00000000E+00  0.00000000E+00  0.00000000E+00
  0.00000000E+00  0.00000000E+00  0.00000000E+00
  0.00000000E+00  0.00000000E+00  0.00000000E+00
  0.00000000E+00  0.00000000E+00  0.00000000E+00
  0.00000000E+00  0.00000000E+00  0.00000000E+00
  0.00000000E+00  0.00000000E+00  0.00000000E+00
  0.00000000E+00  0.00000000E+00  0.00000000E+00
  0.00000000E+00  0.00000000E+00  0.00000000E+00
  0.00000000E+00  0.00000000E+00  0.00000000E+00
  0.00000000E+00  0.00000000E+00  0.00000000E+00
  0.00000000E+00  0.00000000E+00  0.00000000E+00
  0.00000000E+00  0.00000000E+00  0.00000000E+00
  0.00000000E+00  0.00000000E+00  0.00000000E+00
  0.00000000E+00  0.00000000E+00  0.00000000E+00
  0.00000000E+00  0.00000000E+00  0.00000000E+00
  0.00000000E+00  0.00000000E+00  0.00000000E+00
  0.00000000E+00  0.00000000E+00  0.00000000E+00
  0.00000000E+00  0.00000000E+00  0.00000000E+00
  0.00000000E+00  0.00000000E+00  0.00000000E+00
  0.00000000E+00  0.00000000E+00  0.00000000E+00
  0.00000000E+00  0.00000000E+00  0.00000000E+00
  0.00000000E+00  0.00000000E+00  0.00000000E+00
  0.00000000E+00  0.00000000E+00  0.00000000E+00
  0.00000000E+00  0.00000000E+00  0.00000000E+00
  0.00000000E+00  0.00000000E+00  0.00000000E+00
  0.00000000E+00  0.00000000E+00  0.00000000E+00
  0.00000000E+00  0.00000000E+00  0.00000000E+00
  0.00000000E+00  0.00000000E+00  0.00000000E+00
  0.00000000E+00  0.00000000E+00  0.00000000E+00
  0.00000000E+00  0.00000000E+00  0.00000000E+00
  0.00000000E+00  0.00000000E+00  0.00000000E+00
  0.00000000E+00  0.00000000E+00  0.00000000E+00
  0.00000000E+00  0.00000000E+00  0.00000000E+00
  0.00000000E+00  0.00000000E+00  0.00000000E+00
  0.00000000E+00  0.00000000E+00  0.00000000E+00
  0.00000000E+00  0.00000000E+00  0.00000000E+00
  0.00000000E+00  0.00000000E+00  0.00000000E+00
  0.00000000E+00  0.00000000E+00  0.00000000E+00
  0.00000000E+00  0.00000000E+00  0.00000000E+00
  0.00000000E+00  0.00000000E+00  0.00000000E+00
  0.00000000E+00  0.00000000E+00  0.00000000E+00
  0.00000000E+00  0.00000000E+00  0.00000000E+00
  0.00000000E+00  0.00000000E+00  0.00000000E+00
  0.00000000E+00  0.00000000E+00  0.00000000E+00
  0.00000000E+00  0.00000000E+00  0.00000000E+00
  0.00000000E+00  0.00000000E+00  0.00000000E+00
  0.00000000E+00  0.00000000E+00  0.00000000E+00
  0.00000000E+00  0.00000000E+00  0.00000000E+00
  0.00000000E+00  0.00000000E+00  0.00000000E+00
  0.00000000E+00  0.00000000E+00  0.00000000E+00
  0.00000000E+00  0.00000000E+00  0.00000000E+00
  0.00000000E+00  0.00000000E+00  0.00000000E+00
  0.00000000E+00  0.00000000E+00  0.00000000E+00
  0.00000000E+00  0.00000000E+00  0.00000000E+00
  0.00000000E+00  0.00000000E+00  0.00000000E+00
  0.00000000E+00  0.00000000E+00  0.00000000E+00
  0.00000000E+00  0.00000000E+00  0.00000000E+00
  0.00000000E+00  0.00000000E+00  0.00000000E+00
  0.00000000E+00  0.00000000E+00  0.00000000E+00
  0.00000000E+00  0.00000000E+00  0.00000000E+00
  0.00000000E+00  0.00000000E+00  0.00000000E+00
  0.00000000E+00  0.00000000E+00  0.00000000E+00
  0.00000000E+00  0.00000000E+00  0.00000000E+00
  0.00000000E+00  0.00000000E+00  0.00000000E+00
  0.00000000E+00  0.00000000E+00  0.00000000E+00
  0.00000000E+00  0.00000000E+00  0.00000000E+00
  0.00000000E+00  0.00000000E+00  0.00000000E+00
  0.00000000E+00  0.00000000E+00  0.00000000E+00
  0.00000000E+00  0.00000000E+00  0.00000000E+00
  0.00000000E+00  0.00000000E+00  0.00000000E+00
  0.00000000E+00  0.00000000E+00  0.00000000E+00
  0.00000000E+00  0.00000000E+00  0.00000000E+00
  0.00000000E+00  0.00000000E+00  0.00000000E+00
  0.00000000E+00  0.00000000E+00  0.00000000E+00
  0.00000000E+00  0.00000000E+00  0.00000000E+00
  0.00000000E+00  0.00000000E+00  0.00000000E+00
  0.00000000E+00  0.00000000E+00  0.00000000E+00
  0.00000000E+00  0.00000000E+00  0.00000000E+00
  0.00000000E+00  0.00000000E+00  0.00000000E+00
