 C                                      
    1.000000000000000     
    28.0500000000000007    0.0000000000000000    0.0000000000000000
     0.0000000000000000    8.0999999999999996    0.0000000000000000
     0.0000000000000000    0.0000000000000000   33.5000000000000000
   C 
    92
Direct
     0.4149625668449204    0.4239123456790139    0.8689253731343314
     0.4163458110516913    0.5980049382716075    0.8756716417910440
     0.4575080213903746    0.3438320987654322    0.8611343283582116
     0.4589411764705886    0.6803740740740736    0.8724477611940316
     0.5026060606060625    0.4242395061728388    0.8627761194029873
     0.5033262032085588    0.5876271604938239    0.8721194029850778
     0.5482673796791460    0.3419506172839490    0.8632537313432849
     0.5459286987522276    0.6714209876543222    0.8771044776119368
     0.5914581105169319    0.4265740740740753    0.8696716417910437
     0.5894331550802150    0.5950913580246890    0.8784477611940318
     0.6359607843137240    0.3483506172839483    0.8782686567164149
     0.6326702317290582    0.6817827160493835    0.8903283582089543
     0.6788092691622083    0.4351493827160482    0.8885970149253737
     0.6773012477718368    0.6012567901234576    0.8962686567164155
     0.7215472370766491    0.3534345679012318    0.8993432835820911
     0.7196827094474187    0.6862604938271630    0.9099104477611917
     0.7629090909090905    0.4384086419753075    0.9147761194029869
     0.7616434937611416    0.6036604938271637    0.9210746268656749
     0.8050409982174713    0.3542370370370378    0.9242388059701483
     0.8027593582887675    0.6852506172839483    0.9356716417910462
     0.8474688057040964    0.4405432098765445    0.9345671641791071
     0.8459251336898390    0.6029654320987632    0.9454626865671685
     0.8923386809269189    0.3569086419753091    0.9410447761194050
     0.8898395721925141    0.6873555555555555    0.9552238805970177
     0.9356327985739767    0.4351691358024681    0.9508656716417931
     0.9353440285204968    0.6042901234567921    0.9565373134328325
     0.9783529411764675    0.3564296296296305    0.9490149253731346
     0.9789661319073062    0.6856765432098797    0.9639104477611937
     0.0229109803921546    0.4359629629629609    0.9505671641791054
     0.0241654545454537    0.6002925925925950    0.9597313432835790
     0.0666253119429570    0.3502135802469155    0.9456417910447783
     0.0693789661319073    0.6818395061728424    0.9602089552238766
     0.1108335115864563    0.4308962962962966    0.9440298507462686
     0.1134249554367202    0.5984395061728378    0.9525373134328348
     0.1543286987522308    0.3464580246913584    0.9342388059701534
     0.1576356506238881    0.6762222222222221    0.9478208955223906
     0.1970784313725460    0.4246148148148166    0.9232835820895531
     0.1993721925133656    0.5896555555555523    0.9330746268656753
     0.2381240641711244    0.3412925925925947    0.9080895522388062
     0.2413368983957227    0.6728740740740733    0.9251044776119386
     0.2820078431372579    0.4227987654320984    0.9008955223880619
     0.2840866310160450    0.5891135802469165    0.9113731343283575
     0.3226046345811042    0.3414753086419751    0.8869850746268639
     0.3274844919786091    0.6705444444444453    0.9023880597014937
     0.3633119429590010    0.4276419753086387    0.8777014925373123
     0.3667308377896603    0.5908740740740726    0.8855223880596981
     0.4154723707664871    0.9266555555555556    0.8765970149253732
     0.4137754010695218    0.0980730864197525    0.8690746268656682
     0.4587985739750451    0.8472024691358016    0.8721492537313438
     0.4571265597147942    0.1735938271604951    0.8623582089552286
     0.5041105169340483    0.9293469135802468    0.8730149253731341
     0.5030659536541862    0.0904696296296308    0.8627164179104483
     0.5455864527629259    0.8431320987654303    0.8791343283582123
     0.5479037433155085    0.1731839506172861    0.8639402985074653
     0.5897183600713021    0.9300950617283945    0.8848059701492588
     0.5917005347593616    0.0912685185185182    0.8745970149253708
     0.6324313725490214    0.8498111111111086    0.8922985074626837
     0.6354866310160432    0.1772246913580275    0.8787761194029855
     0.6760392156862736    0.9358382716049363    0.9019104477611961
     0.6786809269162219    0.1017003703703736    0.8936716417910446
     0.7173939393939364    0.8521111111111139    0.9130746268656722
     0.7196791443850259    0.1844827160493807    0.9042985074626841
     0.7602424242424277    0.9362567901234584    0.9223283582089579
     0.7605811051693436    0.1067651851851821    0.9202388059701505
     0.8013012477718391    0.8544246913580267    0.9377910447761195
     0.8049304812834208    0.1863382716049387    0.9277014925373095
     0.8446809269162188    0.9364987654320984    0.9472238805970150
     0.8466844919786070    0.1047599999999989    0.9397611940298560
     0.8887058823529443    0.8584802469135795    0.9567462686567154
     0.8914081996434930    0.1862456790123446    0.9451940298507466
     0.9344563279857425    0.9393703703703693    0.9597910447761180
     0.9348948306595375    0.1063656790123488    0.9523582089552249
     0.9792620320855647    0.8523987654320990    0.9636716417910449
     0.9781782531194310    0.1842740740740751    0.9505074626865664
     0.0245844563279860    0.9362172839506187    0.9594925373134302
     0.0234557219251315    0.1029591358024717    0.9520895522388031
     0.0685279857397489    0.8555777777777749    0.9594925373134302
     0.0677825311942968    0.1834790123456784    0.9475522388059687
     0.1138934046345810    0.9319975308641943    0.9521791044776151
     0.1119543672014274    0.0978777777777751    0.9447761194029880
     0.1579447415329795    0.8478024691358002    0.9479402985074614
     0.1534541889483094    0.1760999999999981    0.9324477611940267
     0.1989062388591805    0.9284987654320958    0.9338507462686607
     0.1956816399287007    0.0914548148148171    0.9224179104477628
     0.2416598930481300    0.8458802469135804    0.9227164179104506
     0.2360099821746857    0.1713728395061764    0.9072238805970159
     0.2821040998217441    0.9250123456790149    0.9056417910447720
     0.2792506238859147    0.0882270370370364    0.8961194029850788
     0.3256534759358303    0.8416654320987647    0.8989253731343254
     0.3203340463458133    0.1714753086419734    0.8814925373134344
     0.3651800356506243    0.9281567901234595    0.8847462686567127
     0.3623030303030319    0.0942132098765427    0.8754328358208951
 
  0.00000000E+00  0.00000000E+00  0.00000000E+00
  0.00000000E+00  0.00000000E+00  0.00000000E+00
  0.00000000E+00  0.00000000E+00  0.00000000E+00
  0.00000000E+00  0.00000000E+00  0.00000000E+00
  0.00000000E+00  0.00000000E+00  0.00000000E+00
  0.00000000E+00  0.00000000E+00  0.00000000E+00
  0.00000000E+00  0.00000000E+00  0.00000000E+00
  0.00000000E+00  0.00000000E+00  0.00000000E+00
  0.00000000E+00  0.00000000E+00  0.00000000E+00
  0.00000000E+00  0.00000000E+00  0.00000000E+00
  0.00000000E+00  0.00000000E+00  0.00000000E+00
  0.00000000E+00  0.00000000E+00  0.00000000E+00
  0.00000000E+00  0.00000000E+00  0.00000000E+00
  0.00000000E+00  0.00000000E+00  0.00000000E+00
  0.00000000E+00  0.00000000E+00  0.00000000E+00
  0.00000000E+00  0.00000000E+00  0.00000000E+00
  0.00000000E+00  0.00000000E+00  0.00000000E+00
  0.00000000E+00  0.00000000E+00  0.00000000E+00
  0.00000000E+00  0.00000000E+00  0.00000000E+00
  0.00000000E+00  0.00000000E+00  0.00000000E+00
  0.00000000E+00  0.00000000E+00  0.00000000E+00
  0.00000000E+00  0.00000000E+00  0.00000000E+00
  0.00000000E+00  0.00000000E+00  0.00000000E+00
  0.00000000E+00  0.00000000E+00  0.00000000E+00
  0.00000000E+00  0.00000000E+00  0.00000000E+00
  0.00000000E+00  0.00000000E+00  0.00000000E+00
  0.00000000E+00  0.00000000E+00  0.00000000E+00
  0.00000000E+00  0.00000000E+00  0.00000000E+00
  0.00000000E+00  0.00000000E+00  0.00000000E+00
  0.00000000E+00  0.00000000E+00  0.00000000E+00
  0.00000000E+00  0.00000000E+00  0.00000000E+00
  0.00000000E+00  0.00000000E+00  0.00000000E+00
  0.00000000E+00  0.00000000E+00  0.00000000E+00
  0.00000000E+00  0.00000000E+00  0.00000000E+00
  0.00000000E+00  0.00000000E+00  0.00000000E+00
  0.00000000E+00  0.00000000E+00  0.00000000E+00
  0.00000000E+00  0.00000000E+00  0.00000000E+00
  0.00000000E+00  0.00000000E+00  0.00000000E+00
  0.00000000E+00  0.00000000E+00  0.00000000E+00
  0.00000000E+00  0.00000000E+00  0.00000000E+00
  0.00000000E+00  0.00000000E+00  0.00000000E+00
  0.00000000E+00  0.00000000E+00  0.00000000E+00
  0.00000000E+00  0.00000000E+00  0.00000000E+00
  0.00000000E+00  0.00000000E+00  0.00000000E+00
  0.00000000E+00  0.00000000E+00  0.00000000E+00
  0.00000000E+00  0.00000000E+00  0.00000000E+00
  0.00000000E+00  0.00000000E+00  0.00000000E+00
  0.00000000E+00  0.00000000E+00  0.00000000E+00
  0.00000000E+00  0.00000000E+00  0.00000000E+00
  0.00000000E+00  0.00000000E+00  0.00000000E+00
  0.00000000E+00  0.00000000E+00  0.00000000E+00
  0.00000000E+00  0.00000000E+00  0.00000000E+00
  0.00000000E+00  0.00000000E+00  0.00000000E+00
  0.00000000E+00  0.00000000E+00  0.00000000E+00
  0.00000000E+00  0.00000000E+00  0.00000000E+00
  0.00000000E+00  0.00000000E+00  0.00000000E+00
  0.00000000E+00  0.00000000E+00  0.00000000E+00
  0.00000000E+00  0.00000000E+00  0.00000000E+00
  0.00000000E+00  0.00000000E+00  0.00000000E+00
  0.00000000E+00  0.00000000E+00  0.00000000E+00
  0.00000000E+00  0.00000000E+00  0.00000000E+00
  0.00000000E+00  0.00000000E+00  0.00000000E+00
  0.00000000E+00  0.00000000E+00  0.00000000E+00
  0.00000000E+00  0.00000000E+00  0.00000000E+00
  0.00000000E+00  0.00000000E+00  0.00000000E+00
  0.00000000E+00  0.00000000E+00  0.00000000E+00
  0.00000000E+00  0.00000000E+00  0.00000000E+00
  0.00000000E+00  0.00000000E+00  0.00000000E+00
  0.00000000E+00  0.00000000E+00  0.00000000E+00
  0.00000000E+00  0.00000000E+00  0.00000000E+00
  0.00000000E+00  0.00000000E+00  0.00000000E+00
  0.00000000E+00  0.00000000E+00  0.00000000E+00
  0.00000000E+00  0.00000000E+00  0.00000000E+00
  0.00000000E+00  0.00000000E+00  0.00000000E+00
  0.00000000E+00  0.00000000E+00  0.00000000E+00
  0.00000000E+00  0.00000000E+00  0.00000000E+00
  0.00000000E+00  0.00000000E+00  0.00000000E+00
  0.00000000E+00  0.00000000E+00  0.00000000E+00
  0.00000000E+00  0.00000000E+00  0.00000000E+00
  0.00000000E+00  0.00000000E+00  0.00000000E+00
  0.00000000E+00  0.00000000E+00  0.00000000E+00
  0.00000000E+00  0.00000000E+00  0.00000000E+00
  0.00000000E+00  0.00000000E+00  0.00000000E+00
  0.00000000E+00  0.00000000E+00  0.00000000E+00
  0.00000000E+00  0.00000000E+00  0.00000000E+00
  0.00000000E+00  0.00000000E+00  0.00000000E+00
  0.00000000E+00  0.00000000E+00  0.00000000E+00
  0.00000000E+00  0.00000000E+00  0.00000000E+00
  0.00000000E+00  0.00000000E+00  0.00000000E+00
  0.00000000E+00  0.00000000E+00  0.00000000E+00
  0.00000000E+00  0.00000000E+00  0.00000000E+00
  0.00000000E+00  0.00000000E+00  0.00000000E+00
