 C                                      
    1.000000000000000     
    28.0500000000000007    0.0000000000000000    0.0000000000000000
     0.0000000000000000    8.0999999999999996    0.0000000000000000
     0.0000000000000000    0.0000000000000000   33.5000000000000000
   C 
    92
Direct
     0.5190338680926914    0.8053790123456821    0.5790388059701499
     0.5200035650623889    0.9813950617283922    0.5814417910447744
     0.5618360071301254    0.7211358024691350    0.5722417910447746
     0.5652477718360061    0.0556353086419747    0.5816507462686573
     0.6052620320855624    0.7942925925925906    0.5637014925373123
     0.6072370766488433    0.9650481481481492    0.5680238805970177
     0.6486488413547207    0.7141938271604928    0.5554417910447782
     0.6518074866310144    0.0425858024691337    0.5632656716417941
     0.6931194295900198    0.7967135802469159    0.5481343283582092
     0.6939821746880597    0.9656074074074041    0.5532268656716397
     0.7379999999999995    0.7094209876543189    0.5479044776119437
     0.7379928698752209    0.0488280246913604    0.5526955223880563
     0.7838146167557909    0.7919382716049412    0.5511820895522419
     0.7825062388591775    0.9608481481481448    0.5546925373134357
     0.8287771836007138    0.7157395061728380    0.5562179104477636
     0.8250124777183601    0.0455995061728416    0.5643582089552268
     0.8713761140819969    0.7941666666666691    0.5666925373134362
     0.8694616755793234    0.9673234567901261    0.5724716417910471
     0.9130766488413542    0.7214111111111094    0.5812149253731320
     0.9087415329768262    0.0401192592592565    0.5911761194029879
     0.9543885918003596    0.7977876543209845    0.5965402985074633
     0.9537932263814639    0.9616086419753103    0.6021253731343279
     0.9978467023172897    0.7170604938271623    0.6056029850746256
     0.9956221033868076    0.0403554320987638    0.6173970149253734
     0.0415754010695153    0.7976345679012340    0.6177014925373143
     0.0391590017825294    0.9641024691358027    0.6251940298507463
     0.0836409982174686    0.7149580246913558    0.6294208955223866
     0.0800506238859171    0.0422934567901265    0.6413671641791012
     0.1275351158645250    0.7989999999999995    0.6381343283582055
     0.1252449197860983    0.9643629629629658    0.6444776119402960
     0.1708941176470589    0.7149506172839537    0.6422089552238788
     0.1701119429590037    0.0492206172839502    0.6531074626865703
     0.2168912655971482    0.7997987654321008    0.6450865671641779
     0.2164135472370745    0.9663913580246941    0.6504298507462707
     0.2602317290552563    0.7177123456790113    0.6414835820895490
     0.2602285204991119    0.0488317283950650    0.6481940298507496
     0.3038588235294100    0.8016222222222211    0.6362477611940278
     0.3061254901960808    0.9717135802469130    0.6400746268656690
     0.3472573975044568    0.7221308641975313    0.6276000000000010
     0.3489176470588262    0.0550332098765409    0.6407671641791026
     0.3891978609625681    0.8085432098765466    0.6200865671641793
     0.3906559714795037    0.9752530864197553    0.6235910447761199
     0.4325846702317264    0.7228592592592591    0.6106388059701473
     0.4329732620320854    0.0580808641975281    0.6146835820895546
     0.4702887700534788    0.8046456790123457    0.5912208955223903
     0.4698039215686265    0.9875098765432071    0.5900865671641782
     0.5293654188948338    0.3116246913580270    0.6056985074626837
     0.5266702317290566    0.4862753086419787    0.6026000000000025
     0.5682103386809274    0.2194222222222209    0.5926597014925363
     0.5646203208556173    0.5548296296296300    0.5813283582089568
     0.6120463458110521    0.2949111111111122    0.5855432835820906
     0.6087878787878793    0.4650148148148148    0.5760865671641824
     0.6544812834224629    0.2098074074074106    0.5736089552238823
     0.6491016042780728    0.5490037037037041    0.5608895522388053
     0.6941426024955462    0.2960296296296292    0.5632835820895536
     0.6923707664884162    0.4658049382716030    0.5637104477611956
     0.7378360071301273    0.2172938271604963    0.5561313432835817
     0.7360641711229974    0.5453358024691326    0.5586955223880565
     0.7809946524064202    0.2962962962962976    0.5653194029850752
     0.7804278074866318    0.4653222222222198    0.5635940298507478
     0.8256221033868059    0.2132703703703669    0.5709462686567193
     0.8262531194295875    0.5454000000000008    0.5629343283582102
     0.8664670231729090    0.2938753086419723    0.5855940298507463
     0.8676969696969721    0.4633222222222244    0.5793731343283568
     0.9085418894830681    0.2066827160493858    0.5978059701492526
     0.9115900178253113    0.5488370370370390    0.5878985074626897
     0.9518859180035619    0.2954246913580221    0.6096328358208964
     0.9520249554367197    0.4639765432098741    0.6051820895522368
     0.9949055258467041    0.2167814814814832    0.6196746268656739
     0.9951479500891267    0.5498691358024672    0.6154567164179099
     0.0365982174688071    0.3000358024691394    0.6344626865671614
     0.0356841354723727    0.4662604938271571    0.6315373134328368
     0.0788245989304812    0.2133320987654344    0.6458208955223910
     0.0825721925133678    0.5430061728395046    0.6347074626865705
     0.1244221033868058    0.2932407407407425    0.6465701492537335
     0.1244281639928673    0.4658012345678983    0.6429462686567149
     0.1705415329768272    0.2146691358024668    0.6492059701492536
     0.1693130124777156    0.5385938271604971    0.6433850746268632
     0.2156420677361837    0.2969296296296307    0.6537820895522373
     0.2152816399286976    0.4666555555555547    0.6492597014925394
     0.2621393939393926    0.2191172839506166    0.6533582089552255
     0.2598495543672001    0.5495950617283967    0.6479611940298540
     0.3063319073083761    0.3036160493827182    0.6486059701492550
     0.3055604278074853    0.4733444444444430    0.6449044776119379
     0.3525490196078422    0.2214876543209883    0.6488208955223911
     0.3491019607843171    0.5512950617283963    0.6362298507462683
     0.3952156862745113    0.3039987654320981    0.6408895522388036
     0.3928770053475930    0.4768172839506164    0.6356119402985101
     0.4369197860962544    0.2212444444444444    0.6269701492537294
     0.4352192513368962    0.5582419753086398    0.6187462686567144
     0.4786595365418904    0.2988296296296298    0.6186805970149223
     0.4775721925133709    0.4746000000000024    0.6134417910447780
 
  0.00000000E+00  0.00000000E+00  0.00000000E+00
  0.00000000E+00  0.00000000E+00  0.00000000E+00
  0.00000000E+00  0.00000000E+00  0.00000000E+00
  0.00000000E+00  0.00000000E+00  0.00000000E+00
  0.00000000E+00  0.00000000E+00  0.00000000E+00
  0.00000000E+00  0.00000000E+00  0.00000000E+00
  0.00000000E+00  0.00000000E+00  0.00000000E+00
  0.00000000E+00  0.00000000E+00  0.00000000E+00
  0.00000000E+00  0.00000000E+00  0.00000000E+00
  0.00000000E+00  0.00000000E+00  0.00000000E+00
  0.00000000E+00  0.00000000E+00  0.00000000E+00
  0.00000000E+00  0.00000000E+00  0.00000000E+00
  0.00000000E+00  0.00000000E+00  0.00000000E+00
  0.00000000E+00  0.00000000E+00  0.00000000E+00
  0.00000000E+00  0.00000000E+00  0.00000000E+00
  0.00000000E+00  0.00000000E+00  0.00000000E+00
  0.00000000E+00  0.00000000E+00  0.00000000E+00
  0.00000000E+00  0.00000000E+00  0.00000000E+00
  0.00000000E+00  0.00000000E+00  0.00000000E+00
  0.00000000E+00  0.00000000E+00  0.00000000E+00
  0.00000000E+00  0.00000000E+00  0.00000000E+00
  0.00000000E+00  0.00000000E+00  0.00000000E+00
  0.00000000E+00  0.00000000E+00  0.00000000E+00
  0.00000000E+00  0.00000000E+00  0.00000000E+00
  0.00000000E+00  0.00000000E+00  0.00000000E+00
  0.00000000E+00  0.00000000E+00  0.00000000E+00
  0.00000000E+00  0.00000000E+00  0.00000000E+00
  0.00000000E+00  0.00000000E+00  0.00000000E+00
  0.00000000E+00  0.00000000E+00  0.00000000E+00
  0.00000000E+00  0.00000000E+00  0.00000000E+00
  0.00000000E+00  0.00000000E+00  0.00000000E+00
  0.00000000E+00  0.00000000E+00  0.00000000E+00
  0.00000000E+00  0.00000000E+00  0.00000000E+00
  0.00000000E+00  0.00000000E+00  0.00000000E+00
  0.00000000E+00  0.00000000E+00  0.00000000E+00
  0.00000000E+00  0.00000000E+00  0.00000000E+00
  0.00000000E+00  0.00000000E+00  0.00000000E+00
  0.00000000E+00  0.00000000E+00  0.00000000E+00
  0.00000000E+00  0.00000000E+00  0.00000000E+00
  0.00000000E+00  0.00000000E+00  0.00000000E+00
  0.00000000E+00  0.00000000E+00  0.00000000E+00
  0.00000000E+00  0.00000000E+00  0.00000000E+00
  0.00000000E+00  0.00000000E+00  0.00000000E+00
  0.00000000E+00  0.00000000E+00  0.00000000E+00
  0.00000000E+00  0.00000000E+00  0.00000000E+00
  0.00000000E+00  0.00000000E+00  0.00000000E+00
  0.00000000E+00  0.00000000E+00  0.00000000E+00
  0.00000000E+00  0.00000000E+00  0.00000000E+00
  0.00000000E+00  0.00000000E+00  0.00000000E+00
  0.00000000E+00  0.00000000E+00  0.00000000E+00
  0.00000000E+00  0.00000000E+00  0.00000000E+00
  0.00000000E+00  0.00000000E+00  0.00000000E+00
  0.00000000E+00  0.00000000E+00  0.00000000E+00
  0.00000000E+00  0.00000000E+00  0.00000000E+00
  0.00000000E+00  0.00000000E+00  0.00000000E+00
  0.00000000E+00  0.00000000E+00  0.00000000E+00
  0.00000000E+00  0.00000000E+00  0.00000000E+00
  0.00000000E+00  0.00000000E+00  0.00000000E+00
  0.00000000E+00  0.00000000E+00  0.00000000E+00
  0.00000000E+00  0.00000000E+00  0.00000000E+00
  0.00000000E+00  0.00000000E+00  0.00000000E+00
  0.00000000E+00  0.00000000E+00  0.00000000E+00
  0.00000000E+00  0.00000000E+00  0.00000000E+00
  0.00000000E+00  0.00000000E+00  0.00000000E+00
  0.00000000E+00  0.00000000E+00  0.00000000E+00
  0.00000000E+00  0.00000000E+00  0.00000000E+00
  0.00000000E+00  0.00000000E+00  0.00000000E+00
  0.00000000E+00  0.00000000E+00  0.00000000E+00
  0.00000000E+00  0.00000000E+00  0.00000000E+00
  0.00000000E+00  0.00000000E+00  0.00000000E+00
  0.00000000E+00  0.00000000E+00  0.00000000E+00
  0.00000000E+00  0.00000000E+00  0.00000000E+00
  0.00000000E+00  0.00000000E+00  0.00000000E+00
  0.00000000E+00  0.00000000E+00  0.00000000E+00
  0.00000000E+00  0.00000000E+00  0.00000000E+00
  0.00000000E+00  0.00000000E+00  0.00000000E+00
  0.00000000E+00  0.00000000E+00  0.00000000E+00
  0.00000000E+00  0.00000000E+00  0.00000000E+00
  0.00000000E+00  0.00000000E+00  0.00000000E+00
  0.00000000E+00  0.00000000E+00  0.00000000E+00
  0.00000000E+00  0.00000000E+00  0.00000000E+00
  0.00000000E+00  0.00000000E+00  0.00000000E+00
  0.00000000E+00  0.00000000E+00  0.00000000E+00
  0.00000000E+00  0.00000000E+00  0.00000000E+00
  0.00000000E+00  0.00000000E+00  0.00000000E+00
  0.00000000E+00  0.00000000E+00  0.00000000E+00
  0.00000000E+00  0.00000000E+00  0.00000000E+00
  0.00000000E+00  0.00000000E+00  0.00000000E+00
  0.00000000E+00  0.00000000E+00  0.00000000E+00
  0.00000000E+00  0.00000000E+00  0.00000000E+00
  0.00000000E+00  0.00000000E+00  0.00000000E+00
  0.00000000E+00  0.00000000E+00  0.00000000E+00
