 C 
 1.0000000000000000
    28.0500000000000007    0.0000000000000000    0.0000000000000000
     0.0000000000000000    8.0999999999999996    0.0000000000000000
     0.0000000000000000    0.0000000000000000   33.5000000000000000
 C  
  92
Cartesian
 14.5588999999999995  6.5235700000000003 -14.1021999999999998
 14.5861000000000001  7.9493000000000000 -14.0216999999999992
 15.7594999999999992  5.8411999999999997 -14.3299000000000003
 15.8552000000000000  0.4506460000000000 -14.0146999999999995
 16.9775999999999989  6.4337700000000000 -14.6159999999999997
 17.0330000000000013  7.8168899999999999 -14.4711999999999996
 18.1946000000000012  5.7849700000000004 -14.8926999999999996
 18.2832000000000008  0.3449450000000000 -14.6305999999999994
 19.4420000000000002  6.4533800000000001 -15.1374999999999993
 19.4662000000000006  7.8214199999999998 -14.9669000000000008
 20.7009000000000007  5.7463100000000003 -15.1452000000000009
 20.7007000000000012  0.3955070000000000 -14.9847000000000001
 21.9860000000000007  6.4146999999999998 -15.0353999999999992
 21.9493000000000009  7.7828700000000000 -14.9177999999999997
 23.2471999999999994  5.7974899999999998 -14.8666999999999998
 23.1416000000000004  0.3693560000000000 -14.5939999999999994
 24.4420999999999999  6.4327500000000004 -14.5158000000000005
 24.3884000000000007  7.8353200000000003 -14.3222000000000005
 25.6117999999999988  5.8434299999999997 -14.0292999999999992
 25.4902000000000015  0.3249660000000000 -13.6956000000000007
 26.7706000000000017  6.4620800000000003 -13.5159000000000002
 26.7539000000000016  7.7890300000000003 -13.3287999999999993
 27.9895999999999994  5.8081899999999997 -13.2123000000000008
 27.9271999999999991  0.3268790000000000 -12.8171999999999997
  1.1661900000000001  6.4608400000000001 -12.8070000000000004
  1.0984100000000001  7.8092300000000003 -12.5559999999999992
  2.3461300000000000  5.7911599999999996 -12.4144000000000005
  2.2454200000000002  0.3425770000000000 -12.0142000000000007
  3.5773600000000001  6.4718999999999998 -12.1225000000000005
  3.5131199999999998  7.8113400000000004 -11.9100000000000001
  4.7935800000000004  5.7911000000000001 -11.9860000000000007
  4.7716399999999997  0.3986870000000000 -11.6209000000000007
  6.0838000000000001  6.4783700000000000 -11.8895999999999997
  6.0704000000000002  7.8277700000000001 -11.7105999999999995
  7.2995000000000001  5.8134699999999997 -12.0103000000000009
  7.2994100000000000  0.3955370000000000 -11.7855000000000008
  8.5232399999999995  6.4931400000000004 -12.1857000000000006
  8.5868199999999995  7.8708799999999997 -12.0574999999999992
  9.7405700000000000  5.8492600000000001 -12.4754000000000005
  9.7871400000000008  0.4457690000000000 -12.0343000000000000
 10.9169999999999998  6.5491999999999999 -12.7271000000000001
 10.9579000000000004  7.8995499999999996 -12.6097000000000001
 12.1340000000000003  5.8551599999999997 -13.0435999999999996
 12.1448999999999998  0.4704550000000000 -12.9080999999999992
 13.1915999999999993  6.5176299999999996 -13.6941000000000006
 13.1780000000000008  7.9988299999999999 -13.7321000000000009
 14.8486999999999991  2.5241600000000002 -13.2090999999999994
 14.7730999999999995  3.9388299999999998 -13.3129000000000008
 15.9382999999999999  1.7773200000000000 -13.6458999999999993
 15.8376000000000001  4.4941199999999997 -14.0254999999999992
 17.1678999999999995  2.3887800000000001 -13.8842999999999996
 17.0764999999999993  3.7666200000000001 -14.2011000000000003
 18.3582000000000001  1.6994400000000001 -14.2841000000000005
 18.2073000000000000  4.4469300000000000 -14.7102000000000004
 19.4707000000000008  2.3978400000000000 -14.6300000000000008
 19.4209999999999994  3.7730199999999998 -14.6157000000000004
 20.6963000000000008  1.7600800000000001 -14.8696000000000002
 20.6465999999999994  4.4172200000000004 -14.7836999999999996
 21.9069000000000003  2.3999999999999999 -14.5617999999999999
 21.8909999999999982  3.7691100000000000 -14.6196000000000002
 23.1586999999999996  1.7274900000000000 -14.3733000000000004
 23.1764000000000010  4.4177400000000002 -14.6417000000000002
 24.3044000000000011  2.3803899999999998 -13.8826000000000001
 24.3388999999999989  3.7529100000000000 -14.0909999999999993
 25.4846000000000004  1.6741299999999999 -13.4734999999999996
 25.5701000000000001  4.4455799999999996 -13.8054000000000006
 26.7003999999999984  2.3929399999999998 -13.0772999999999993
 26.7042999999999999  3.7582100000000001 -13.2263999999999999
 27.9070999999999998  1.7559300000000000 -12.7408999999999999
 27.9139000000000017  4.4539400000000002 -12.8821999999999992
  1.0265800000000000  2.4302899999999998 -12.2454999999999998
  1.0009399999999999  3.7767100000000000 -12.3435000000000006
  2.2110300000000001  1.7279899999999999 -11.8650000000000002
  2.3161499999999999  4.3983499999999998 -12.2372999999999994
  3.4900400000000000  2.3752499999999999 -11.8399000000000001
  3.4902099999999998  3.7729900000000001 -11.9612999999999996
  4.7836900000000000  1.7388200000000000 -11.7515999999999998
  4.7492299999999998  4.3626100000000001 -11.9466000000000001
  6.0487599999999997  2.4051300000000002 -11.5983000000000001
  6.0386499999999996  3.7799100000000001 -11.7498000000000005
  7.3530100000000003  1.7748500000000000 -11.6125000000000007
  7.2887800000000000  4.4517199999999999 -11.7933000000000003
  8.5926100000000005  2.4592900000000002 -11.7716999999999992
  8.5709700000000009  3.8340900000000002 -11.8956999999999997
  9.8889999999999993  1.7940499999999999 -11.7645000000000000
  9.7923100000000005  4.4654900000000000 -12.1862999999999992
 11.0858000000000008  2.4623900000000001 -12.0302000000000007
 11.0202000000000009  3.8622200000000002 -12.2070000000000007
 12.2555999999999994  1.7920799999999999 -12.4964999999999993
 12.2079000000000004  4.5217599999999996 -12.7720000000000002
 13.4263999999999992  2.4205199999999998 -12.7742000000000004
 13.3958999999999993  3.8442599999999998 -12.9497000000000000
