 C                                      
    1.000000000000000     
    28.0500000000000007    0.0000000000000000    0.0000000000000000
     0.0000000000000000    8.0999999999999996    0.0000000000000000
     0.0000000000000000    0.0000000000000000   33.5000000000000000
   C 
    92
Direct
     0.0072943672014247    0.1116681481481478    0.4946626865671675
     0.0098636363636331    0.2825962962962976    0.4929104477611972
     0.0521536541889489    0.0354583950617311    0.5007402985074592
     0.0525147950089107    0.3660913580246898    0.4981014925373159
     0.0944969696969693    0.1176211111111130    0.5156029850746293
     0.0944591800356491    0.2873530864197562    0.5146417910447738
     0.1383376114081969    0.0304532098765407    0.5259014925373151
     0.1386930481283457    0.3679604938271623    0.5205611940298525
     0.1821900178253131    0.1145833333333357    0.5348298507462701
     0.1832969696969684    0.2835716049382739    0.5301820895522411
     0.2261950089126543    0.0275890123456790    0.5415432835820866
     0.2281397504456351    0.3613123456790106    0.5296776119403006
     0.2713636363636382    0.1114739506172810    0.5437552238805949
     0.2712648841354692    0.2815061728395065    0.5353880597014893
     0.3160524064171142    0.0338665432098750    0.5415791044776128
     0.3143347593582888    0.3589074074074077    0.5282805970149269
     0.3605347593582877    0.1144783950617310    0.5350089552238799
     0.3604848484848517    0.2798024691358023    0.5281402985074592
     0.4044242424242412    0.0315469135802502    0.5320537313432823
     0.4053903743315530    0.3625567901234561    0.5231731343283599
     0.4496648841354727    0.1091465432098744    0.5229074626865682
     0.4488520499108759    0.2733851851851838    0.5218985074626872
     0.4903493761140822    0.0218388888888867    0.5099582089552257
     0.4929982174688092    0.3478049382716080    0.5095820895522394
     0.5334652406417106    0.1020955555555574    0.4958059701492559
     0.5338360071301267    0.2644617283950623    0.4978746268656735
     0.5759928698752219    0.0201839506172874    0.4838298507462682
     0.5775650623885937    0.3512283950617316    0.4827194029850759
     0.6219429590017853    0.1073859259259251    0.4728179104477590
     0.6194402852049876    0.2772246913580219    0.4697761194029866
     0.6594224598930509    0.0307618518518495    0.4533671641791059
     0.6587700534759335    0.3624296296296308    0.4510955223880586
     0.7023814616755786    0.1109285185185200    0.4397701492537323
     0.7002531194295898    0.2823567901234583    0.4407134328358211
     0.7448877005347612    0.0329812345678988    0.4366029850746287
     0.7452620320855630    0.3628333333333345    0.4372656716417893
     0.7910659536541900    0.1156608641975296    0.4397820895522386
     0.7888912655971509    0.2825259259259241    0.4391820895522400
     0.8349803921568650    0.0351264197530838    0.4452686567164150
     0.8354046345811028    0.3641999999999967    0.4421373134328377
     0.8791336898395699    0.1151785185185190    0.4494298507462702
     0.8785276292335098    0.2868543209876577    0.4516716417910445
     0.9215579322638163    0.0388179012345660    0.4582597014925369
     0.9223957219251346    0.3687703703703704    0.4586089552238803
     0.9608306595365406    0.1207034567901246    0.4751791044776112
     0.9636221033868111    0.2865938271604946    0.4730925373134340
     0.0158245989304788    0.6191407407407397    0.4745253731343269
     0.0145131194295871    0.7858728395061760    0.4751522388059684
     0.0549390374331580    0.5258395061728365    0.4882805970149278
     0.0541361853832427    0.8661160493827182    0.4931462686567158
     0.0966206773618552    0.6107962962962930    0.4974567164179078
     0.0983679144385050    0.7793283950617251    0.4975701492537326
     0.1393180035650659    0.5339888888888922    0.5122656716417922
     0.1390541889483075    0.8662197530864191    0.5151283582089548
     0.1837040998217461    0.6103407407407389    0.5180029850746237
     0.1827094474153270    0.7786123456790150    0.5215970149253764
     0.2277935828876991    0.5343654320987667    0.5265820895522353
     0.2241197860962600    0.8611333333333349    0.5332567164179096
     0.2723864527629232    0.6135345679012332    0.5274597014925391
     0.2706053475935803    0.7851098765432099    0.5315194029850758
     0.3168046345811035    0.5279148148148138    0.5262537313432816
     0.3138898395721910    0.8630271604938287    0.5395373134328381
     0.3617290552584649    0.6124629629629652    0.5294477611940280
     0.3594581105169325    0.7787901234567869    0.5359194029850727
     0.4049304812834222    0.5304740740740712    0.5232238805970155
     0.4046274509803922    0.8647432098765435    0.5322955223880612
     0.4489019607843119    0.6100148148148179    0.5171373134328334
     0.4496791443850299    0.7787950617283954    0.5228776119402951
     0.4906203208556121    0.5215086419753092    0.5061402985074608
     0.4928841354723730    0.8560172839506208    0.5113701492537288
     0.5312299465240642    0.6031432098765421    0.4937552238805978
     0.5341140819964352    0.7693604938271577    0.4954268656716394
     0.5738502673796759    0.5204543209876533    0.4808805970149237
     0.5758609625668427    0.8522728395061705    0.4819432835820905
     0.6169839572192544    0.6042432098765431    0.4660328358208972
     0.6162531194295866    0.7730024691358039    0.4658805970149231
     0.6580178253119442    0.5316271604938265    0.4523134328358225
     0.6586702317290545    0.8606012345679019    0.4550417910447777
     0.7028877005347596    0.6138407407407414    0.4476567164179102
     0.7032941176470615    0.7813839506172826    0.4483820895522399
     0.7466131907308409    0.5330271604938304    0.4405970149253733
     0.7479465240641687    0.8696469135802474    0.4451910447761165
     0.7908520499108747    0.6153950617283925    0.4404208955223865
     0.7921782531194310    0.7866209876543238    0.4446955223880593
     0.8356042780748680    0.5332827160493849    0.4405761194029836
     0.8361782531194279    0.8656827160493847    0.4417522388059680
     0.8814295900178237    0.6143753086419750    0.4465223880596980
     0.8797076648841369    0.7846160493827128    0.4452567164179086
     0.9246595365418884    0.5344222222222257    0.4511343283582079
     0.9230338680926948    0.8700913580246947    0.4529552238806005
     0.9673333333333360    0.6187123456790147    0.4577313432835837
     0.9668270944741550    0.7885308641975328    0.4592895522388076
 
  0.00000000E+00  0.00000000E+00  0.00000000E+00
  0.00000000E+00  0.00000000E+00  0.00000000E+00
  0.00000000E+00  0.00000000E+00  0.00000000E+00
  0.00000000E+00  0.00000000E+00  0.00000000E+00
  0.00000000E+00  0.00000000E+00  0.00000000E+00
  0.00000000E+00  0.00000000E+00  0.00000000E+00
  0.00000000E+00  0.00000000E+00  0.00000000E+00
  0.00000000E+00  0.00000000E+00  0.00000000E+00
  0.00000000E+00  0.00000000E+00  0.00000000E+00
  0.00000000E+00  0.00000000E+00  0.00000000E+00
  0.00000000E+00  0.00000000E+00  0.00000000E+00
  0.00000000E+00  0.00000000E+00  0.00000000E+00
  0.00000000E+00  0.00000000E+00  0.00000000E+00
  0.00000000E+00  0.00000000E+00  0.00000000E+00
  0.00000000E+00  0.00000000E+00  0.00000000E+00
  0.00000000E+00  0.00000000E+00  0.00000000E+00
  0.00000000E+00  0.00000000E+00  0.00000000E+00
  0.00000000E+00  0.00000000E+00  0.00000000E+00
  0.00000000E+00  0.00000000E+00  0.00000000E+00
  0.00000000E+00  0.00000000E+00  0.00000000E+00
  0.00000000E+00  0.00000000E+00  0.00000000E+00
  0.00000000E+00  0.00000000E+00  0.00000000E+00
  0.00000000E+00  0.00000000E+00  0.00000000E+00
  0.00000000E+00  0.00000000E+00  0.00000000E+00
  0.00000000E+00  0.00000000E+00  0.00000000E+00
  0.00000000E+00  0.00000000E+00  0.00000000E+00
  0.00000000E+00  0.00000000E+00  0.00000000E+00
  0.00000000E+00  0.00000000E+00  0.00000000E+00
  0.00000000E+00  0.00000000E+00  0.00000000E+00
  0.00000000E+00  0.00000000E+00  0.00000000E+00
  0.00000000E+00  0.00000000E+00  0.00000000E+00
  0.00000000E+00  0.00000000E+00  0.00000000E+00
  0.00000000E+00  0.00000000E+00  0.00000000E+00
  0.00000000E+00  0.00000000E+00  0.00000000E+00
  0.00000000E+00  0.00000000E+00  0.00000000E+00
  0.00000000E+00  0.00000000E+00  0.00000000E+00
  0.00000000E+00  0.00000000E+00  0.00000000E+00
  0.00000000E+00  0.00000000E+00  0.00000000E+00
  0.00000000E+00  0.00000000E+00  0.00000000E+00
  0.00000000E+00  0.00000000E+00  0.00000000E+00
  0.00000000E+00  0.00000000E+00  0.00000000E+00
  0.00000000E+00  0.00000000E+00  0.00000000E+00
  0.00000000E+00  0.00000000E+00  0.00000000E+00
  0.00000000E+00  0.00000000E+00  0.00000000E+00
  0.00000000E+00  0.00000000E+00  0.00000000E+00
  0.00000000E+00  0.00000000E+00  0.00000000E+00
  0.00000000E+00  0.00000000E+00  0.00000000E+00
  0.00000000E+00  0.00000000E+00  0.00000000E+00
  0.00000000E+00  0.00000000E+00  0.00000000E+00
  0.00000000E+00  0.00000000E+00  0.00000000E+00
  0.00000000E+00  0.00000000E+00  0.00000000E+00
  0.00000000E+00  0.00000000E+00  0.00000000E+00
  0.00000000E+00  0.00000000E+00  0.00000000E+00
  0.00000000E+00  0.00000000E+00  0.00000000E+00
  0.00000000E+00  0.00000000E+00  0.00000000E+00
  0.00000000E+00  0.00000000E+00  0.00000000E+00
  0.00000000E+00  0.00000000E+00  0.00000000E+00
  0.00000000E+00  0.00000000E+00  0.00000000E+00
  0.00000000E+00  0.00000000E+00  0.00000000E+00
  0.00000000E+00  0.00000000E+00  0.00000000E+00
  0.00000000E+00  0.00000000E+00  0.00000000E+00
  0.00000000E+00  0.00000000E+00  0.00000000E+00
  0.00000000E+00  0.00000000E+00  0.00000000E+00
  0.00000000E+00  0.00000000E+00  0.00000000E+00
  0.00000000E+00  0.00000000E+00  0.00000000E+00
  0.00000000E+00  0.00000000E+00  0.00000000E+00
  0.00000000E+00  0.00000000E+00  0.00000000E+00
  0.00000000E+00  0.00000000E+00  0.00000000E+00
  0.00000000E+00  0.00000000E+00  0.00000000E+00
  0.00000000E+00  0.00000000E+00  0.00000000E+00
  0.00000000E+00  0.00000000E+00  0.00000000E+00
  0.00000000E+00  0.00000000E+00  0.00000000E+00
  0.00000000E+00  0.00000000E+00  0.00000000E+00
  0.00000000E+00  0.00000000E+00  0.00000000E+00
  0.00000000E+00  0.00000000E+00  0.00000000E+00
  0.00000000E+00  0.00000000E+00  0.00000000E+00
  0.00000000E+00  0.00000000E+00  0.00000000E+00
  0.00000000E+00  0.00000000E+00  0.00000000E+00
  0.00000000E+00  0.00000000E+00  0.00000000E+00
  0.00000000E+00  0.00000000E+00  0.00000000E+00
  0.00000000E+00  0.00000000E+00  0.00000000E+00
  0.00000000E+00  0.00000000E+00  0.00000000E+00
  0.00000000E+00  0.00000000E+00  0.00000000E+00
  0.00000000E+00  0.00000000E+00  0.00000000E+00
  0.00000000E+00  0.00000000E+00  0.00000000E+00
  0.00000000E+00  0.00000000E+00  0.00000000E+00
  0.00000000E+00  0.00000000E+00  0.00000000E+00
  0.00000000E+00  0.00000000E+00  0.00000000E+00
  0.00000000E+00  0.00000000E+00  0.00000000E+00
  0.00000000E+00  0.00000000E+00  0.00000000E+00
  0.00000000E+00  0.00000000E+00  0.00000000E+00
  0.00000000E+00  0.00000000E+00  0.00000000E+00
