K-Spacing Value to Generate K-Mesh: 0.030
0
Gamma
   1   4   1
0.0  0.0  0.0
