 C 
 1.0000000000000000
    28.0500000000000007    0.0000000000000000    0.0000000000000000
     0.0000000000000000    8.0999999999999996    0.0000000000000000
     0.0000000000000000    0.0000000000000000   33.5000000000000000
 C  
  92
Cartesian
  0.2046070000000000  0.9045120000000000 16.5712000000000010
  0.2766750000000000  2.2890299999999999 16.5124999999999993
  1.4629099999999999  0.2872130000000000 16.7747999999999990
  1.4730399999999999  2.9653399999999999 16.6863999999999990
  2.6506400000000001  0.9527310000000000 17.2727000000000004
  2.6495799999999998  2.3275600000000001 17.2405000000000008
  3.8803700000000001  0.2466710000000000 17.6176999999999992
  3.8903400000000001  2.9804800000000000 17.4388000000000005
  5.1104300000000000  0.9281250000000000 17.9167999999999985
  5.1414799999999996  2.2969300000000001 17.7610999999999990
  6.3447699999999996  0.2234710000000000 18.1417000000000002
  6.3993200000000003  2.9266299999999998 17.7441999999999993
  7.6117499999999998  0.9029390000000000 18.2158000000000015
  7.6089799999999999  2.2801999999999998 17.9355000000000011
  8.8652700000000006  0.2743190000000000 18.1429000000000009
  8.8170900000000003  2.9071500000000001 17.6973999999999982
 10.1129999999999995  0.9272750000000000 17.9227999999999987
 10.1115999999999993  2.2664000000000000 17.6926999999999985
 11.3440999999999992  0.2555300000000000 17.8237999999999985
 11.3712000000000000  2.9367100000000002 17.5262999999999991
 12.6130999999999993  0.8840870000000000 17.5173999999999985
 12.5902999999999992  2.2144200000000001 17.4835999999999991
 13.7543000000000006  0.1768950000000000 17.0836000000000006
 13.8285999999999998  2.8172199999999998 17.0710000000000015
 14.9636999999999993  0.8269740000000000 16.6095000000000006
 14.9741000000000000  2.1421399999999999 16.6787999999999990
 16.1566000000000010  0.1634900000000000 16.2083000000000013
 16.2007000000000012  2.8449499999999999 16.1710999999999991
 17.4454999999999991  0.8698260000000000 15.8393999999999995
 17.3752999999999993  2.2455200000000000 15.7375000000000007
 18.4968000000000004  0.2491710000000000 15.1877999999999993
 18.4785000000000004  2.9356800000000001 15.1117000000000008
 19.7017999999999986  0.8985210000000000 14.7323000000000004
 19.6420999999999992  2.2870900000000001 14.7638999999999996
 20.8941000000000017  0.2671480000000000 14.6262000000000008
 20.9045999999999985  2.9389500000000002 14.6484000000000005
 22.1893999999999991  0.9368530000000000 14.7326999999999995
 22.1283999999999992  2.2884600000000002 14.7126000000000001
 23.4211999999999989  0.2845240000000000 14.9164999999999992
 23.4330999999999996  2.9500199999999999 14.8116000000000003
 24.6597000000000008  0.9329460000000001 15.0558999999999994
 24.6427000000000014  2.3235199999999998 15.1310000000000002
 25.8496999999999986  0.3144250000000000 15.3516999999999992
 25.8732000000000006  2.9870399999999999 15.3634000000000004
 26.9512999999999998  0.9776980000000000 15.9184999999999999
 27.0295999999999985  2.3214100000000002 15.8485999999999994
  0.4438800000000000  5.0150399999999999 15.8965999999999994
  0.4070930000000000  6.3655700000000000 15.9176000000000002
  1.5410400000000000  4.2592999999999996 16.3573999999999984
  1.5185200000000001  7.0155399999999997 16.5203999999999986
  2.7102100000000000  4.9474499999999999 16.6647999999999996
  2.7592200000000000  6.3125600000000004 16.6686000000000014
  3.9078700000000000  4.3253100000000000 17.1609000000000016
  3.9004699999999999  7.0163799999999998 17.2567999999999984
  5.1528999999999998  4.9437600000000002 17.3531000000000013
  5.1250000000000000  6.3067599999999997 17.4735000000000014
  6.3896100000000002  4.3283600000000000 17.6404999999999994
  6.2865599999999997  6.9751799999999999 17.8641000000000005
  7.6404399999999999  4.9696300000000004 17.6698999999999984
  7.5904800000000003  6.3593900000000003 17.8059000000000012
  8.8863699999999994  4.2761100000000001 17.6295000000000002
  8.8046100000000003  6.9905200000000001 18.0745000000000005
 10.1464999999999996  4.9609500000000004 17.7364999999999995
 10.0828000000000007  6.3082000000000003 17.9532999999999987
 11.3582999999999998  4.2968400000000004 17.5279999999999987
 11.3498000000000001  7.0044199999999996 17.8319000000000010
 12.5916999999999994  4.9411199999999997 17.3241000000000014
 12.6135000000000002  6.3082399999999996 17.5164000000000009
 13.7619000000000007  4.2242199999999999 16.9557000000000002
 13.8254000000000001  6.9337400000000002 17.1309000000000005
 14.9009999999999998  4.8854600000000001 16.5408000000000008
 14.9818999999999996  6.2318199999999999 16.5968000000000018
 16.0964999999999989  4.2156799999999999 16.1095000000000006
 16.1528999999999989  6.9034100000000000 16.1450999999999993
 17.3064000000000000  4.8943700000000003 15.6120999999999999
 17.2859000000000016  6.2613200000000004 15.6069999999999993
 18.4573999999999998  4.3061800000000003 15.1524999999999999
 18.4756999999999998  6.9708699999999997 15.2439000000000000
 19.7160000000000011  4.9721099999999998 14.9964999999999993
 19.7273999999999994  6.3292099999999998 15.0207999999999995
 20.9424999999999990  4.3175200000000000 14.7599999999999998
 20.9799000000000007  7.0441399999999996 14.9138999999999999
 22.1833999999999989  4.9847000000000001 14.7540999999999993
 22.2206000000000010  6.3716299999999997 14.8972999999999995
 23.4387000000000008  4.3195899999999998 14.7592999999999996
 23.4547999999999988  7.0120300000000002 14.7987000000000002
 24.7241000000000000  4.9764400000000002 14.9585000000000008
 24.6757999999999988  6.3553899999999999 14.9161000000000001
 25.9366999999999983  4.3288200000000003 15.1129999999999995
 25.8911000000000016  7.0477400000000001 15.1739999999999995
 27.1337000000000010  5.0115699999999999 15.3339999999999996
 27.1194999999999986  6.3871000000000002 15.3862000000000005
