 C 
 1.0000000000000000
    28.0500000000000007    0.0000000000000000    0.0000000000000000
     0.0000000000000000    8.0999999999999996    0.0000000000000000
     0.0000000000000000    0.0000000000000000   33.5000000000000000
 C  
  92
Cartesian
  0.0532519000000000  0.7890850000000000 16.1295000000000002
  0.0920667000000000  2.1698100000000000 16.2291999999999987
  1.2155100000000001  0.0880544000000000 15.9763999999999999
  1.2789299999999999  2.8627099999999999 16.0993999999999993
  2.4473500000000001  0.7897630000000000 15.6448000000000000
  2.4815700000000001  2.1601200000000000 15.7490000000000006
  3.6780499999999998  0.1486260000000000 15.3927999999999994
  3.7125900000000001  2.8834499999999998 15.6471999999999998
  4.8916500000000003  0.8035300000000000 15.2120999999999995
  4.9203400000000004  2.1963699999999999 15.2728999999999999
  6.1945699999999997  0.2111250000000000 15.3826000000000001
  6.1458399999999997  2.8921600000000001 15.2352000000000007
  7.5109399999999997  0.8526790000000000 15.2293000000000003
  7.4124299999999996  2.2312799999999999 15.2286999999999999
  8.7174099999999992  0.2306100000000000 15.3259000000000007
  8.7295800000000003  2.8914000000000000 15.4076000000000004
  9.9582200000000007  0.8833299999999999 15.5418000000000003
  9.9463899999999992  2.2225799999999998 15.5556000000000001
 11.1999999999999993  0.1673610000000000 15.7667999999999999
 11.1645000000000003  2.9050199999999999 15.9663000000000004
 12.3507999999999996  0.8613380000000000 16.2373000000000012
 12.3038000000000007  2.2434400000000001 16.4029999999999987
 13.6010000000000009  0.2375590000000000 16.4821999999999989
 13.4581999999999997  2.8845600000000000 16.8838000000000008
 14.7239000000000004  0.8654320000000000 17.0098999999999982
 14.6730999999999998  2.2127400000000002 17.1030000000000015
 15.9006000000000007  0.2229860000000000 17.3298999999999985
 15.8933999999999997  2.8702999999999999 17.4257999999999988
 17.1538000000000004  0.8521510000000000 17.6091000000000015
 17.0621000000000009  2.1982400000000002 17.8278999999999996
 18.3777000000000008  0.1907260000000000 17.7673999999999985
 18.3454000000000015  2.8634499999999998 17.9144000000000005
 19.6236999999999995  0.8830230000000000 17.9039999999999999
 19.6509000000000000  2.2182499999999998 17.9893000000000001
 20.8490000000000002  0.1845510000000000 17.9439999999999991
 20.8507999999999996  2.8625600000000002 18.2250000000000014
 22.0716000000000001  0.8482900000000000 17.8333000000000013
 22.1020000000000003  2.2253500000000002 18.0905999999999985
 23.3158999999999992  0.1597890000000000 17.7791999999999994
 23.3079000000000001  2.8942600000000001 17.8341999999999992
 24.4588999999999999  0.8497050000000000 17.3651000000000018
 24.4266000000000005  2.2226800000000000 17.3685000000000009
 25.6903000000000006  0.1625920000000000 17.2146000000000008
 25.6361999999999988  2.9016999999999999 17.2099000000000011
 26.7314000000000007  0.8964250000000000 16.5877000000000017
 26.7305999999999990  2.2647599999999999 16.5666000000000011
  0.3772860000000000  4.8739999999999997 17.1600999999999999
  0.3075120000000000  6.2367800000000004 17.0439000000000007
  1.3987499999999999  4.1714000000000002 16.4957999999999991
  1.3403300000000000  6.8881500000000004 16.4390999999999998
  2.6211799999999998  4.8582700000000001 16.2152999999999992
  2.5411100000000002  6.2560500000000001 16.2195000000000000
  3.7666200000000001  4.2472200000000004 15.8127999999999993
  3.7299099999999998  6.9157700000000002 15.7081000000000000
  5.0126999999999997  4.8895000000000000 15.6930999999999994
  4.9981600000000004  6.2591500000000000 15.5945000000000000
  6.2135699999999998  4.2212300000000003 15.5090000000000003
  6.1891800000000003  6.9339700000000004 15.4611000000000001
  7.4936699999999998  4.9290399999999996 15.5924999999999994
  7.4753800000000004  6.2687700000000000 15.4659999999999993
  8.7020199999999992  4.2397999999999998 15.6461000000000006
  8.7139799999999994  6.9490600000000002 15.4579000000000004
  9.8828600000000009  4.9201100000000002 15.9224999999999994
  9.9099100000000000  6.2464000000000004 15.7577999999999996
 11.1125000000000007  4.2515900000000002 16.0592000000000006
 11.1651000000000007  6.8965699999999996 15.8338999999999999
 12.3023000000000007  4.9395699999999998 16.3475999999999999
 12.3762000000000008  6.3025599999999997 16.2789000000000001
 13.4937000000000005  4.2668600000000003 16.8160999999999987
 13.6151000000000000  6.9756000000000000 16.4211999999999989
 14.6622000000000003  4.9042399999999997 17.1079000000000008
 14.7269000000000005  6.2708399999999997 16.9061999999999983
 15.8640000000000008  4.2134000000000000 17.4048000000000016
 15.9588000000000001  6.9214300000000000 17.2220000000000013
 17.1156000000000006  4.8473300000000004 17.6450999999999993
 17.1783999999999999  6.2265199999999998 17.5074000000000005
 18.3700000000000010  4.1946500000000002 17.9923999999999999
 18.4190000000000005  6.9217199999999997 17.8575000000000017
 19.6018000000000008  4.9192700000000000 18.2280000000000015
 19.6258000000000017  6.2526500000000000 18.0106999999999999
 20.8505000000000003  4.2105699999999997 18.4082000000000008
 20.8893999999999984  6.9228500000000004 18.1380000000000017
 22.1814000000000000  4.8845499999999999 18.3893999999999984
 22.1277000000000008  6.2476000000000003 18.2763999999999989
 23.3460999999999999  4.2124199999999998 18.1738999999999997
 23.3540999999999990  6.9055700000000000 18.1463000000000001
 24.5755000000000017  4.8724999999999996 18.0344000000000015
 24.5979999999999990  6.2176099999999996 17.9975999999999985
 25.7512000000000008  4.1895400000000000 17.7509000000000015
 25.7621000000000002  6.9142799999999998 17.5918999999999990
 26.9790999999999990  4.8027199999999999 17.6220999999999997
 26.9427999999999983  6.2116400000000001 17.4334999999999987
