 C 
 1.0000000000000000
    28.0500000000000007    0.0000000000000000    0.0000000000000000
     0.0000000000000000    8.0999999999999996    0.0000000000000000
     0.0000000000000000    0.0000000000000000   33.5000000000000000
 C  
  92
Cartesian
  0.1936020000000000  0.8662910000000000 18.6007999999999996
  0.2044130000000000  2.2447200000000000 18.4610999999999983
  1.4100999999999999  0.1961370000000000 18.4802000000000000
  1.4161300000000001  2.8468900000000001 18.0273000000000003
  2.7109700000000001  0.8385830000000000 18.2829000000000015
  2.6727400000000001  2.2054900000000002 18.0945999999999998
  3.8993899999999999  0.1989020000000000 17.9269999999999996
  3.8554200000000001  2.8840300000000001 17.5745000000000005
  5.1071700000000000  0.8518510000000000 17.6091000000000015
  5.0480799999999997  2.2206600000000001 17.3683000000000014
  6.3217800000000004  0.2002610000000000 17.2908000000000008
  6.2203900000000001  2.8800200000000000 16.7557000000000009
  7.5208700000000004  0.8560480000000000 16.8929000000000009
  7.4584599999999996  2.2195299999999998 16.6549000000000014
  8.7673500000000004  0.2122400000000000 16.7146000000000008
  8.6306300000000000  2.8715199999999999 16.1835999999999984
  9.9217399999999998  0.8907600000000000 16.3521000000000001
  9.8297000000000008  2.1801400000000002 16.0211000000000006
 11.1601999999999997  0.2016290000000000 16.0418999999999983
 11.0899000000000001  2.8757700000000002 15.6831999999999994
 12.2992000000000008  0.8532930000000000 15.7010000000000005
 12.3262000000000000  2.1996400000000000 15.6327999999999996
 13.5380000000000003  0.1963820000000000 15.5277999999999992
 13.5526999999999997  2.7936200000000002 15.4440000000000008
 14.8028999999999993  0.8210430000000000 15.5002999999999993
 14.8085000000000004  2.1771799999999999 15.5412999999999997
 16.0248999999999988  0.1179510000000000 15.3721999999999994
 16.0539999999999985  2.8474499999999998 15.2918000000000003
 17.3007999999999988  0.8196520000000000 15.4268000000000001
 17.2778999999999989  2.1805500000000002 15.4000000000000004
 18.5343000000000018  0.1830610000000000 15.5489999999999995
 18.5245999999999995  2.8460000000000001 15.6506000000000007
 19.6889000000000003  0.8312520000000000 15.9727999999999994
 19.7459999999999987  2.2168800000000002 15.9551999999999996
 20.7921000000000014  0.1992220000000000 16.4963000000000015
 20.9166999999999987  2.8815400000000002 16.2944999999999993
 21.9891000000000005  0.8665780000000000 16.9197999999999986
 22.0277999999999992  2.2031399999999999 16.8260000000000005
 23.1463000000000001  0.2266920000000000 17.5181000000000004
 23.2118000000000002  2.8786600000000000 17.2288999999999994
 24.2952000000000012  0.8735640000000000 18.0124999999999993
 24.3493999999999993  2.2539699999999998 17.7896000000000001
 25.5152000000000001  0.2336830000000000 18.3579000000000008
 25.5665000000000013  2.9476900000000001 17.9581000000000017
 26.7302000000000000  0.9106510000000000 18.5154999999999994
 26.7683999999999997  2.3146100000000001 18.3531000000000013
  0.1459510000000000  4.8815900000000001 18.1389999999999993
  0.2291010000000000  6.2671400000000004 18.4370000000000012
  1.3957299999999999  4.2081600000000003 17.8654000000000011
  1.4455100000000001  6.9241700000000002 18.3714000000000013
  2.5814900000000001  4.9074600000000004 17.7468000000000004
  2.6485799999999999  6.2521399999999998 18.0619000000000014
  3.7717299999999998  4.2707499999999996 17.4250000000000007
  3.9058600000000001  6.9255800000000001 17.9538000000000011
  4.9943400000000002  4.9039400000000004 17.1083999999999996
  5.0762400000000003  6.2552399999999997 17.5189999999999984
  6.1908700000000003  4.2600300000000004 16.6524000000000001
  6.3219799999999999  6.9265400000000001 17.2075999999999993
  7.3546399999999998  4.9108400000000003 16.3792000000000009
  7.4635100000000003  6.2284100000000002 16.7887999999999984
  8.5865100000000005  4.2352900000000000 16.0409000000000006
  8.6849500000000006  6.9285899999999998 16.5490999999999993
  9.7978900000000007  4.8882099999999999 15.7720000000000002
  9.8572699999999998  6.2230299999999996 16.1360999999999990
 11.0375999999999994  4.2410600000000001 15.5521999999999991
 11.0893999999999995  6.9266300000000003 15.8719000000000001
 12.2766000000000002  4.8937200000000001 15.3065999999999995
 12.2876999999999992  6.2672100000000004 15.4038000000000004
 13.5459999999999994  4.1633800000000001 15.1959999999999997
 13.5472999999999999  6.9496200000000004 15.3775999999999993
 14.7481000000000009  4.8408300000000004 15.1077999999999992
 14.7728999999999999  6.1772999999999998 15.2027000000000001
 15.9856999999999996  4.2280400000000000 15.1652000000000005
 15.9870999999999999  6.8724900000000000 15.2735000000000003
 17.2191000000000010  4.8755499999999996 15.2657000000000007
 17.2493000000000016  6.2280699999999998 15.2975999999999992
 18.5101000000000013  4.2034599999999998 15.5641999999999996
 18.4945999999999984  6.9050000000000002 15.5695999999999994
 19.6729999999999983  4.8993000000000002 15.9214000000000002
 19.6920999999999999  6.2380599999999999 15.9161000000000001
 20.9178999999999995  4.2360800000000003 16.3131999999999984
 20.9238000000000000  6.9413000000000000 16.3669000000000011
 22.0805000000000007  4.9095000000000004 16.7012999999999998
 22.0701999999999998  6.3024199999999997 16.8276000000000003
 23.2694000000000010  4.2657499999999997 17.0579999999999998
 23.2169999999999987  6.9520299999999997 17.4116000000000000
 24.4513999999999996  4.9478000000000000 17.3456000000000010
 24.4220000000000006  6.2843200000000001 17.5929000000000002
 25.6462000000000003  4.2414699999999996 17.5963999999999992
 25.5461999999999989  6.9501799999999996 18.1496999999999993
 26.8242000000000012  4.9151499999999997 17.9678000000000004
 26.8023999999999987  6.2968099999999998 18.2608999999999995
