 C                                      
    1.000000000000000     
    28.0500000000000007    0.0000000000000000    0.0000000000000000
     0.0000000000000000    8.0999999999999996    0.0000000000000000
     0.0000000000000000    0.0000000000000000   33.5000000000000000
   C 
    92
Direct
     0.0047952228163979    0.0972285185185200    0.4838358208955214
     0.0035775401069529    0.2718320987654295    0.4816029850746304
     0.0470431372549029    0.0183150617283943    0.4777014925373138
     0.0473244206773629    0.3538271604938288    0.4696089552238831
     0.0912106951871650    0.1026108641975298    0.4701313432835832
     0.0926003565062388    0.2702925925925896    0.4622149253731322
     0.1345639928698787    0.0243909876543213    0.4636626865671616
     0.1341925133689870    0.3611666666666693    0.4509522388059679
     0.1801518716577561    0.1036034567901254    0.4550925373134334
     0.1790303030303022    0.2738271604938305    0.4487791044776088
     0.2241529411764702    0.0216675308641996    0.4552537313432836
     0.2240737967914441    0.3576444444444462    0.4477850746268643
     0.2676713012477734    0.1073349382716060    0.4585074626865691
     0.2693486631016029    0.2746148148148180    0.4525791044776142
     0.3109048128342238    0.0271865432098792    0.4694328358208963
     0.3142213903743283    0.3483469135802437    0.4588686567164189
     0.3543326203208537    0.1034707407407396    0.4791194029850772
     0.3577611408199672    0.2686197530864192    0.4730567164179078
     0.3975614973262012    0.0236987654321013    0.4886597014925371
     0.4003208556149715    0.3556024691358033    0.4829283582089587
     0.4392085561497296    0.1070171604938253    0.5026000000000010
     0.4408306595365445    0.2755382716049368    0.4986208955223859
     0.4793725490196081    0.0230075308641986    0.5178955223880592
     0.4829661319073111    0.3566419753086407    0.5107044776119380
     0.5229839572192532    0.1084775308641994    0.5260447761194058
     0.5253511586452788    0.2766691358024715    0.5210895522388057
     0.5641212121212149    0.0260741975308676    0.5395402985074611
     0.5674901960784311    0.3611098765432104    0.5340746268656744
     0.6072192513369004    0.1061958024691378    0.5471940298507434
     0.6094188948306609    0.2701567901234583    0.5433492537313427
     0.6523101604278096    0.0195756790123482    0.5548298507462661
     0.6525133689839606    0.3538753086419746    0.5486985074626887
     0.6974652406417121    0.1050024691358047    0.5510507462686576
     0.6972370766488396    0.2707938271604959    0.5465014925373168
     0.7417825311942963    0.0182295061728368    0.5479611940298525
     0.7414581105169304    0.3552802469135798    0.5408805970149260
     0.7852014260249547    0.1024176543209876    0.5380149253731332
     0.7850588235294111    0.2676222222222222    0.5326089552238784
     0.8301925133689849    0.0236523456790110    0.5301164179104489
     0.8294723707664886    0.3472037037037055    0.5211791044776106
     0.8725311942959024    0.1046653086419767    0.5157611940298494
     0.8730766488413551    0.2725061728395062    0.5162865671641796
     0.9166773618538357    0.0188497530864211    0.5064716417910446
     0.9146345811051688    0.3554432098765403    0.5027194029850719
     0.9567629233511568    0.1006359259259284    0.4991462686567161
     0.9556399286987514    0.2729271604938290    0.4952597014925360
     0.0028042566844917    0.5957592592592604    0.4720447761194038
     0.0049329411764703    0.7716246913580278    0.4788746268656752
     0.0470698752228174    0.5203888888888883    0.4649402985074644
     0.0476438502673773    0.8496617283950627    0.4748447761194043
     0.0916495543672013    0.6049395061728404    0.4598537313432871
     0.0929814616755777    0.7714543209876510    0.4679253731343280
     0.1352345811051663    0.5259432098765444    0.4489731343283552
     0.1362698752228155    0.8523691358024692    0.4650925373134314
     0.1799639928698724    0.6069802469135794    0.4441850746268656
     0.1800149732620326    0.7750370370370376    0.4534597014925339
     0.2248705882352908    0.5228604938271602    0.4433432835820881
     0.2252663101604284    0.8471555555555526    0.4553731343283616
     0.2712866310160393    0.6037592592592560    0.4454805970149280
     0.2708652406417116    0.7713790123456761    0.4556447761194065
     0.3155180035650602    0.5168395061728361    0.4549313432835831
     0.3108228163992877    0.8541999999999987    0.4690149253731377
     0.3585739750445640    0.6063987654320968    0.4691462686567149
     0.3536335115864517    0.7730839506172842    0.4735761194029848
     0.3998360071301263    0.5253802469135778    0.4831761194029838
     0.3966916221033898    0.8580913580246943    0.4885641791044790
     0.4408021390374302    0.6077135802469158    0.4987820895522361
     0.4385775401069552    0.7762382716049387    0.5020507462686581
     0.4814153297682680    0.5269703703703712    0.5130388059701474
     0.4790445632798566    0.8540296296296290    0.5182477611940328
     0.5232762923351189    0.6120197530864218    0.5296447761194045
     0.5202245989304828    0.7744728395061742    0.5336805970149285
     0.5658360071301232    0.5241543209876554    0.5379074626865687
     0.5628877005347590    0.8597543209876548    0.5449492537313461
     0.6082317290552552    0.6082604938271601    0.5469880597014907
     0.6068235294117628    0.7745802469135796    0.5494955223880567
     0.6539750445632819    0.5193691358024708    0.5494358208955248
     0.6533155080213930    0.8523666666666685    0.5525910447761220
     0.6984349376114096    0.5987925925925950    0.5499701492537312
     0.6978645276292355    0.7747518518518532    0.5500268656716401
     0.7415008912655949    0.5218629629629632    0.5383194029850742
     0.7433083778966108    0.8537876543209890    0.5456716417910457
     0.7864634581105179    0.6003308641975309    0.5321402985074641
     0.7871408199643497    0.7729432098765443    0.5377283582089518
     0.8280249554367174    0.5185135802469105    0.5207074626865662
     0.8317896613190712    0.8527925925925928    0.5311552238805959
     0.8729447415329759    0.6068975308641953    0.5110417910447751
     0.8741960784313747    0.7742444444444416    0.5184238805970125
     0.9145418894830684    0.5192975308642005    0.4988925373134308
     0.9168342245989294    0.8515246913580228    0.5082388059701515
     0.9588805704099812    0.5973209876543208    0.4943880597014925
     0.9595864527629203    0.7698444444444448    0.4996686567164161
 
  0.00000000E+00  0.00000000E+00  0.00000000E+00
  0.00000000E+00  0.00000000E+00  0.00000000E+00
  0.00000000E+00  0.00000000E+00  0.00000000E+00
  0.00000000E+00  0.00000000E+00  0.00000000E+00
  0.00000000E+00  0.00000000E+00  0.00000000E+00
  0.00000000E+00  0.00000000E+00  0.00000000E+00
  0.00000000E+00  0.00000000E+00  0.00000000E+00
  0.00000000E+00  0.00000000E+00  0.00000000E+00
  0.00000000E+00  0.00000000E+00  0.00000000E+00
  0.00000000E+00  0.00000000E+00  0.00000000E+00
  0.00000000E+00  0.00000000E+00  0.00000000E+00
  0.00000000E+00  0.00000000E+00  0.00000000E+00
  0.00000000E+00  0.00000000E+00  0.00000000E+00
  0.00000000E+00  0.00000000E+00  0.00000000E+00
  0.00000000E+00  0.00000000E+00  0.00000000E+00
  0.00000000E+00  0.00000000E+00  0.00000000E+00
  0.00000000E+00  0.00000000E+00  0.00000000E+00
  0.00000000E+00  0.00000000E+00  0.00000000E+00
  0.00000000E+00  0.00000000E+00  0.00000000E+00
  0.00000000E+00  0.00000000E+00  0.00000000E+00
  0.00000000E+00  0.00000000E+00  0.00000000E+00
  0.00000000E+00  0.00000000E+00  0.00000000E+00
  0.00000000E+00  0.00000000E+00  0.00000000E+00
  0.00000000E+00  0.00000000E+00  0.00000000E+00
  0.00000000E+00  0.00000000E+00  0.00000000E+00
  0.00000000E+00  0.00000000E+00  0.00000000E+00
  0.00000000E+00  0.00000000E+00  0.00000000E+00
  0.00000000E+00  0.00000000E+00  0.00000000E+00
  0.00000000E+00  0.00000000E+00  0.00000000E+00
  0.00000000E+00  0.00000000E+00  0.00000000E+00
  0.00000000E+00  0.00000000E+00  0.00000000E+00
  0.00000000E+00  0.00000000E+00  0.00000000E+00
  0.00000000E+00  0.00000000E+00  0.00000000E+00
  0.00000000E+00  0.00000000E+00  0.00000000E+00
  0.00000000E+00  0.00000000E+00  0.00000000E+00
  0.00000000E+00  0.00000000E+00  0.00000000E+00
  0.00000000E+00  0.00000000E+00  0.00000000E+00
  0.00000000E+00  0.00000000E+00  0.00000000E+00
  0.00000000E+00  0.00000000E+00  0.00000000E+00
  0.00000000E+00  0.00000000E+00  0.00000000E+00
  0.00000000E+00  0.00000000E+00  0.00000000E+00
  0.00000000E+00  0.00000000E+00  0.00000000E+00
  0.00000000E+00  0.00000000E+00  0.00000000E+00
  0.00000000E+00  0.00000000E+00  0.00000000E+00
  0.00000000E+00  0.00000000E+00  0.00000000E+00
  0.00000000E+00  0.00000000E+00  0.00000000E+00
  0.00000000E+00  0.00000000E+00  0.00000000E+00
  0.00000000E+00  0.00000000E+00  0.00000000E+00
  0.00000000E+00  0.00000000E+00  0.00000000E+00
  0.00000000E+00  0.00000000E+00  0.00000000E+00
  0.00000000E+00  0.00000000E+00  0.00000000E+00
  0.00000000E+00  0.00000000E+00  0.00000000E+00
  0.00000000E+00  0.00000000E+00  0.00000000E+00
  0.00000000E+00  0.00000000E+00  0.00000000E+00
  0.00000000E+00  0.00000000E+00  0.00000000E+00
  0.00000000E+00  0.00000000E+00  0.00000000E+00
  0.00000000E+00  0.00000000E+00  0.00000000E+00
  0.00000000E+00  0.00000000E+00  0.00000000E+00
  0.00000000E+00  0.00000000E+00  0.00000000E+00
  0.00000000E+00  0.00000000E+00  0.00000000E+00
  0.00000000E+00  0.00000000E+00  0.00000000E+00
  0.00000000E+00  0.00000000E+00  0.00000000E+00
  0.00000000E+00  0.00000000E+00  0.00000000E+00
  0.00000000E+00  0.00000000E+00  0.00000000E+00
  0.00000000E+00  0.00000000E+00  0.00000000E+00
  0.00000000E+00  0.00000000E+00  0.00000000E+00
  0.00000000E+00  0.00000000E+00  0.00000000E+00
  0.00000000E+00  0.00000000E+00  0.00000000E+00
  0.00000000E+00  0.00000000E+00  0.00000000E+00
  0.00000000E+00  0.00000000E+00  0.00000000E+00
  0.00000000E+00  0.00000000E+00  0.00000000E+00
  0.00000000E+00  0.00000000E+00  0.00000000E+00
  0.00000000E+00  0.00000000E+00  0.00000000E+00
  0.00000000E+00  0.00000000E+00  0.00000000E+00
  0.00000000E+00  0.00000000E+00  0.00000000E+00
  0.00000000E+00  0.00000000E+00  0.00000000E+00
  0.00000000E+00  0.00000000E+00  0.00000000E+00
  0.00000000E+00  0.00000000E+00  0.00000000E+00
  0.00000000E+00  0.00000000E+00  0.00000000E+00
  0.00000000E+00  0.00000000E+00  0.00000000E+00
  0.00000000E+00  0.00000000E+00  0.00000000E+00
  0.00000000E+00  0.00000000E+00  0.00000000E+00
  0.00000000E+00  0.00000000E+00  0.00000000E+00
  0.00000000E+00  0.00000000E+00  0.00000000E+00
  0.00000000E+00  0.00000000E+00  0.00000000E+00
  0.00000000E+00  0.00000000E+00  0.00000000E+00
  0.00000000E+00  0.00000000E+00  0.00000000E+00
  0.00000000E+00  0.00000000E+00  0.00000000E+00
  0.00000000E+00  0.00000000E+00  0.00000000E+00
  0.00000000E+00  0.00000000E+00  0.00000000E+00
  0.00000000E+00  0.00000000E+00  0.00000000E+00
  0.00000000E+00  0.00000000E+00  0.00000000E+00
