 C 
 1.0000000000000000
    28.0500000000000007    0.0000000000000000    0.0000000000000000
     0.0000000000000000    8.0999999999999996    0.0000000000000000
     0.0000000000000000    0.0000000000000000   33.5000000000000000
 C  
  92
Cartesian
  0.1345060000000000  0.7875510000000000 16.2085000000000008
  0.1003500000000000  2.2018399999999998 16.1337000000000010
  1.3195600000000001  0.1483520000000000 16.0030000000000001
  1.3274500000000000  2.8660000000000001 15.7318999999999996
  2.5584600000000002  0.8311480000000000 15.7493999999999996
  2.5974400000000002  2.1893699999999998 15.4841999999999995
  3.7745199999999999  0.1975670000000000 15.5327000000000002
  3.7641000000000000  2.9254500000000001 15.1068999999999996
  5.0532599999999999  0.8391880000000000 15.2455999999999996
  5.0217999999999998  2.2180000000000000 15.0341000000000005
  6.2874900000000000  0.1755070000000000 15.2509999999999994
  6.2852699999999997  2.8969200000000002 15.0007999999999999
  7.5081800000000003  0.8694130000000000 15.3599999999999994
  7.5552299999999999  2.2243800000000000 15.1614000000000004
  8.7208799999999993  0.2202110000000000 15.7260000000000009
  8.8139099999999999  2.8216100000000002 15.3720999999999997
  9.9390300000000007  0.8381130000000000 16.0504999999999995
 10.0351999999999997  2.1758199999999999 15.8474000000000004
 11.1516000000000002  0.1919600000000000 16.3701000000000008
 11.2289999999999992  2.8803800000000002 16.1781000000000006
 12.3198000000000008  0.8668390000000000 16.8370999999999995
 12.3652999999999995  2.2318600000000002 16.7038000000000011
 13.4464000000000006  0.1863610000000000 17.3494999999999990
 13.5472000000000001  2.8887999999999998 17.1085999999999991
 14.6697000000000006  0.8786680000000000 17.6224999999999987
 14.7361000000000004  2.2410199999999998 17.4564999999999984
 15.8236000000000008  0.2112010000000000 18.0746000000000002
 15.9181000000000008  2.9249900000000002 17.8915000000000006
 17.0324999999999989  0.8601860000000000 18.3309999999999995
 17.0942000000000007  2.1882700000000002 18.2022000000000013
 18.2972999999999999  0.1585630000000000 18.5868000000000002
 18.3030000000000008  2.8663900000000000 18.3813999999999993
 19.5639000000000003  0.8505200000000001 18.4602000000000004
 19.5575000000000010  2.1934300000000002 18.3078000000000003
 20.8069999999999986  0.1476590000000000 18.3567000000000000
 20.7978999999999985  2.8777699999999999 18.1194999999999986
 22.0248999999999988  0.8295830000000000 18.0234999999999985
 22.0209000000000010  2.1677399999999998 17.8424000000000014
 23.2868999999999993  0.1915840000000000 17.7589000000000006
 23.2667000000000002  2.8123499999999999 17.4594999999999985
 24.4744999999999990  0.8477890000000000 17.2779999999999987
 24.4897999999999989  2.2073000000000000 17.2956000000000003
 25.7128000000000014  0.1526830000000000 16.9667999999999992
 25.6555000000000000  2.8790900000000001 16.8411000000000008
 26.8371999999999993  0.8151510000000000 16.7213999999999992
 26.8057000000000016  2.2107100000000002 16.5912000000000006
  0.0786594000000000  4.8256500000000004 15.8134999999999994
  0.1383690000000000  6.2501600000000002 16.0423000000000009
  1.3203100000000001  4.2151500000000004 15.5754999999999999
  1.3364100000000001  6.8822599999999996 15.9072999999999993
  2.5707700000000000  4.9000100000000000 15.4050999999999991
  2.6081300000000001  6.2487800000000000 15.6754999999999995
  3.7933300000000001  4.2601399999999998 15.0405999999999995
  3.8223699999999998  6.9041899999999998 15.5806000000000004
  5.0479900000000004  4.9165400000000004 14.8802000000000003
  5.0494199999999996  6.2778000000000000 15.1908999999999992
  6.3076200000000000  4.2351700000000001 14.8520000000000003
  6.3187199999999999  6.8619599999999998 15.2550000000000008
  7.6095899999999999  4.8904500000000004 14.9236000000000004
  7.5977699999999997  6.2481700000000000 15.2640999999999991
  8.8502799999999997  4.1863999999999999 15.2401999999999997
  8.7185799999999993  6.9190199999999997 15.7119999999999997
 10.0579999999999998  4.9118300000000001 15.7164000000000001
  9.9194200000000006  6.2619800000000003 15.8648000000000007
 11.2154000000000007  4.2555800000000001 16.1863999999999990
 11.1272000000000002  6.9505400000000002 16.3669000000000011
 12.3644999999999996  4.9224800000000002 16.7091999999999992
 12.3020999999999994  6.2875300000000003 16.8186999999999998
 13.5037000000000003  4.2684600000000001 17.1868000000000016
 13.4372000000000007  6.9176399999999996 17.3613000000000000
 14.6778999999999993  4.9573600000000004 17.7430999999999983
 14.5922999999999998  6.2732299999999999 17.8782999999999994
 15.8717000000000006  4.2456500000000004 18.0198999999999998
 15.7889999999999997  6.9640100000000000 18.2558000000000007
 17.0609000000000002  4.9269100000000003 18.3241000000000014
 17.0213999999999999  6.2740999999999998 18.4081000000000010
 18.3440000000000012  4.2068899999999996 18.4060999999999986
 18.3255000000000017  6.9041699999999997 18.5118000000000009
 19.5911000000000008  4.8502200000000002 18.4239999999999995
 19.5750999999999991  6.2754899999999996 18.4258999999999986
 20.7990999999999993  4.2270899999999996 18.0336999999999996
 20.8497999999999983  6.9156800000000000 18.2800000000000011
 22.0603000000000016  4.8626800000000001 17.8266999999999989
 22.0792999999999999  6.2608400000000000 18.0138999999999996
 23.2260999999999989  4.1999599999999999 17.4436999999999998
 23.3317000000000014  6.9076199999999996 17.7937000000000012
 24.4861000000000004  4.9158700000000000 17.1199000000000012
 24.5212000000000003  6.2713799999999997 17.3672000000000004
 25.6528999999999989  4.2063100000000002 16.7129000000000012
 25.7171999999999983  6.8973500000000003 17.0259999999999998
 26.8965999999999994  4.8383000000000003 16.5620000000000012
 26.9163999999999994  6.2357399999999998 16.7389000000000010
