 C                                      
    1.000000000000000     
    28.0500000000000007    0.0000000000000000    0.0000000000000000
     0.0000000000000000    8.0999999999999996    0.0000000000000000
     0.0000000000000000    0.0000000000000000   33.5000000000000000
   C 
    92
Direct
     0.0028850017825306    0.1045262962962994    0.4869014925373136
     0.0023941319073089    0.2773629629629610    0.4865820895522361
     0.0473746880570403    0.0205988888888911    0.4799462686567182
     0.0468955436720151    0.3573209876543189    0.4828895522388095
     0.0885654188948308    0.1030543209876527    0.4667253731343308
     0.0901750445632814    0.2722506172839516    0.4708149253731335
     0.1332303030303024    0.0230969135802468    0.4582955223880631
     0.1338941176470598    0.3506283950617259    0.4646805970149259
     0.1773194295900211    0.1018277777777783    0.4507044776119429
     0.1765090909090929    0.2692518518518554    0.4564089552238784
     0.2221279857397533    0.0172750617283981    0.4499940298507497
     0.2221033868092661    0.3469641975308662    0.4597223880597028
     0.2666595365418871    0.0995504938271594    0.4545850746268627
     0.2673789661319077    0.2685222222222237    0.4622119402985092
     0.3110306595365415    0.0143725925925935    0.4596597014925408
     0.3109040998217480    0.3520283950617298    0.4652985074626841
     0.3542103386809288    0.0933180246913565    0.4717611940298525
     0.3543326203208537    0.2678333333333356    0.4706268656716404
     0.3995151515151534    0.0153137037037041    0.4741641791044771
     0.3974616755793221    0.3509074074074050    0.4795701492537319
     0.4399964349376120    0.1006298765432092    0.4873373134328389
     0.4393725490196090    0.2702666666666644    0.4908895522388050
     0.4856577540106954    0.0207355555555537    0.4953014925373154
     0.4825276292335090    0.3541666666666643    0.5023164179104498
     0.5251871657753995    0.1024371604938281    0.5106597014925356
     0.5253226381461644    0.2690333333333328    0.5132776119402962
     0.5688377896613162    0.0196024691358048    0.5169014925373148
     0.5656648841354723    0.3515777777777771    0.5269791044776113
     0.6102139037433147    0.1049032098765466    0.5317701492537310
     0.6088484848484867    0.2729469135802489    0.5384686567164181
     0.6536185383244231    0.0268674074074085    0.5392029850746241
     0.6520106951871654    0.3569000000000031    0.5437970149253744
     0.6957361853832467    0.1076896296296326    0.5465761194029852
     0.6949411764705857    0.2755012345678978    0.5500955223880624
     0.7408948306595349    0.0239116049382702    0.5448268656716451
     0.7398217468805726    0.3564074074074099    0.5491432835820902
     0.7833868092691603    0.1115354320987620    0.5362179104477605
     0.7836862745098045    0.2763728395061733    0.5462179104477585
     0.8276470588235298    0.0271870370370380    0.5264328358208985
     0.8286702317290562    0.3619814814814788    0.5399194029850776
     0.8706274509803933    0.1136177777777760    0.5198119402985100
     0.8710516934046382    0.2799246913580262    0.5291970149253729
     0.9134081996434915    0.0262292592592601    0.5138417910447757
     0.9145632798573970    0.3582456790123487    0.5229820895522366
     0.9553725490196072    0.1096698765432080    0.5020179104477620
     0.9539750445632791    0.2841345679012335    0.5042477611940299
     0.0081001782531160    0.6027703703703722    0.5029134328358182
     0.0078268092691616    0.7710506172839473    0.4991462686567161
     0.0498003565062390    0.5188382716049418    0.4935522388059681
     0.0492338680926920    0.8497691358024682    0.4832298507462696
     0.0945825311942983    0.6005679012345695    0.4835402985074637
     0.0926905525846706    0.7705197530864183    0.4765582089552254
     0.1352951871657737    0.5183419753086440    0.4710626865671657
     0.1339140819964371    0.8550209876543207    0.4639164179104469
     0.1793026737967907    0.5985543209876525    0.4615671641791010
     0.1783030303030273    0.7707185185185210    0.4607761194029862
     0.2227921568627451    0.5122444444444412    0.4572895522388052
     0.2219643493761154    0.8512308641975324    0.4561343283582104
     0.2667882352941149    0.5974061728395057    0.4564746268656705
     0.2667254901960803    0.7697962962962990    0.4553791044776148
     0.3118320855614982    0.5195481481481465    0.4646328358208933
     0.3110844919786118    0.8420111111111126    0.4579164179104467
     0.3560641711229948    0.6049617283950610    0.4602298507462663
     0.3569126559714775    0.7668209876543202    0.4558417910447758
     0.3987843137254927    0.5194641975308656    0.4700179104477584
     0.4021568627450947    0.8540543209876574    0.4657432835820927
     0.4435115864527646    0.6007839506172843    0.4783582089552212
     0.4458894830659546    0.7723876543209869    0.4727761194029867
     0.4835971479500927    0.5207641975308661    0.4959611940298529
     0.4868698752228156    0.8523679012345653    0.4864358208955224
     0.5270303030303012    0.6042654320987637    0.5040149253731343
     0.5292192513368974    0.7693135802469158    0.4975671641791024
     0.5682816399286992    0.5208802469135776    0.5215731343283565
     0.5701426024955438    0.8448703703703728    0.5122865671641819
     0.6098752228163988    0.6063271604938265    0.5311701492537324
     0.6114759358288779    0.7690839506172864    0.5226059701492503
     0.6517112299465211    0.5281259259259272    0.5448567164179110
     0.6533440285205003    0.8551419753086407    0.5335731343283570
     0.6968377896613163    0.6040864197530880    0.5481611940298521
     0.6957575757575754    0.7744160493827152    0.5457820895522403
     0.7415864527629239    0.5289197530864200    0.5511313432835792
     0.7416042780748668    0.8624333333333354    0.5423731343283578
     0.7864563279857393    0.6077222222222218    0.5499432835820883
     0.7854759358288774    0.7762308641975295    0.5427402985074607
     0.8296720142602467    0.5285098765432110    0.5452626865671633
     0.8294688057041029    0.8603629629629665    0.5344895522388029
     0.8750481283422431    0.6102938271604970    0.5402955223880568
     0.8738787878787875    0.7781543209876531    0.5352626865671652
     0.9168663101604295    0.5310493827160485    0.5279999999999987
     0.9153333333333364    0.8606728395061722    0.5249970149253755
     0.9592691622103402    0.6080395061728368    0.5182358208955193
     0.9593582887700549    0.7836876543209854    0.5161731343283549
 
  0.00000000E+00  0.00000000E+00  0.00000000E+00
  0.00000000E+00  0.00000000E+00  0.00000000E+00
  0.00000000E+00  0.00000000E+00  0.00000000E+00
  0.00000000E+00  0.00000000E+00  0.00000000E+00
  0.00000000E+00  0.00000000E+00  0.00000000E+00
  0.00000000E+00  0.00000000E+00  0.00000000E+00
  0.00000000E+00  0.00000000E+00  0.00000000E+00
  0.00000000E+00  0.00000000E+00  0.00000000E+00
  0.00000000E+00  0.00000000E+00  0.00000000E+00
  0.00000000E+00  0.00000000E+00  0.00000000E+00
  0.00000000E+00  0.00000000E+00  0.00000000E+00
  0.00000000E+00  0.00000000E+00  0.00000000E+00
  0.00000000E+00  0.00000000E+00  0.00000000E+00
  0.00000000E+00  0.00000000E+00  0.00000000E+00
  0.00000000E+00  0.00000000E+00  0.00000000E+00
  0.00000000E+00  0.00000000E+00  0.00000000E+00
  0.00000000E+00  0.00000000E+00  0.00000000E+00
  0.00000000E+00  0.00000000E+00  0.00000000E+00
  0.00000000E+00  0.00000000E+00  0.00000000E+00
  0.00000000E+00  0.00000000E+00  0.00000000E+00
  0.00000000E+00  0.00000000E+00  0.00000000E+00
  0.00000000E+00  0.00000000E+00  0.00000000E+00
  0.00000000E+00  0.00000000E+00  0.00000000E+00
  0.00000000E+00  0.00000000E+00  0.00000000E+00
  0.00000000E+00  0.00000000E+00  0.00000000E+00
  0.00000000E+00  0.00000000E+00  0.00000000E+00
  0.00000000E+00  0.00000000E+00  0.00000000E+00
  0.00000000E+00  0.00000000E+00  0.00000000E+00
  0.00000000E+00  0.00000000E+00  0.00000000E+00
  0.00000000E+00  0.00000000E+00  0.00000000E+00
  0.00000000E+00  0.00000000E+00  0.00000000E+00
  0.00000000E+00  0.00000000E+00  0.00000000E+00
  0.00000000E+00  0.00000000E+00  0.00000000E+00
  0.00000000E+00  0.00000000E+00  0.00000000E+00
  0.00000000E+00  0.00000000E+00  0.00000000E+00
  0.00000000E+00  0.00000000E+00  0.00000000E+00
  0.00000000E+00  0.00000000E+00  0.00000000E+00
  0.00000000E+00  0.00000000E+00  0.00000000E+00
  0.00000000E+00  0.00000000E+00  0.00000000E+00
  0.00000000E+00  0.00000000E+00  0.00000000E+00
  0.00000000E+00  0.00000000E+00  0.00000000E+00
  0.00000000E+00  0.00000000E+00  0.00000000E+00
  0.00000000E+00  0.00000000E+00  0.00000000E+00
  0.00000000E+00  0.00000000E+00  0.00000000E+00
  0.00000000E+00  0.00000000E+00  0.00000000E+00
  0.00000000E+00  0.00000000E+00  0.00000000E+00
  0.00000000E+00  0.00000000E+00  0.00000000E+00
  0.00000000E+00  0.00000000E+00  0.00000000E+00
  0.00000000E+00  0.00000000E+00  0.00000000E+00
  0.00000000E+00  0.00000000E+00  0.00000000E+00
  0.00000000E+00  0.00000000E+00  0.00000000E+00
  0.00000000E+00  0.00000000E+00  0.00000000E+00
  0.00000000E+00  0.00000000E+00  0.00000000E+00
  0.00000000E+00  0.00000000E+00  0.00000000E+00
  0.00000000E+00  0.00000000E+00  0.00000000E+00
  0.00000000E+00  0.00000000E+00  0.00000000E+00
  0.00000000E+00  0.00000000E+00  0.00000000E+00
  0.00000000E+00  0.00000000E+00  0.00000000E+00
  0.00000000E+00  0.00000000E+00  0.00000000E+00
  0.00000000E+00  0.00000000E+00  0.00000000E+00
  0.00000000E+00  0.00000000E+00  0.00000000E+00
  0.00000000E+00  0.00000000E+00  0.00000000E+00
  0.00000000E+00  0.00000000E+00  0.00000000E+00
  0.00000000E+00  0.00000000E+00  0.00000000E+00
  0.00000000E+00  0.00000000E+00  0.00000000E+00
  0.00000000E+00  0.00000000E+00  0.00000000E+00
  0.00000000E+00  0.00000000E+00  0.00000000E+00
  0.00000000E+00  0.00000000E+00  0.00000000E+00
  0.00000000E+00  0.00000000E+00  0.00000000E+00
  0.00000000E+00  0.00000000E+00  0.00000000E+00
  0.00000000E+00  0.00000000E+00  0.00000000E+00
  0.00000000E+00  0.00000000E+00  0.00000000E+00
  0.00000000E+00  0.00000000E+00  0.00000000E+00
  0.00000000E+00  0.00000000E+00  0.00000000E+00
  0.00000000E+00  0.00000000E+00  0.00000000E+00
  0.00000000E+00  0.00000000E+00  0.00000000E+00
  0.00000000E+00  0.00000000E+00  0.00000000E+00
  0.00000000E+00  0.00000000E+00  0.00000000E+00
  0.00000000E+00  0.00000000E+00  0.00000000E+00
  0.00000000E+00  0.00000000E+00  0.00000000E+00
  0.00000000E+00  0.00000000E+00  0.00000000E+00
  0.00000000E+00  0.00000000E+00  0.00000000E+00
  0.00000000E+00  0.00000000E+00  0.00000000E+00
  0.00000000E+00  0.00000000E+00  0.00000000E+00
  0.00000000E+00  0.00000000E+00  0.00000000E+00
  0.00000000E+00  0.00000000E+00  0.00000000E+00
  0.00000000E+00  0.00000000E+00  0.00000000E+00
  0.00000000E+00  0.00000000E+00  0.00000000E+00
  0.00000000E+00  0.00000000E+00  0.00000000E+00
  0.00000000E+00  0.00000000E+00  0.00000000E+00
  0.00000000E+00  0.00000000E+00  0.00000000E+00
  0.00000000E+00  0.00000000E+00  0.00000000E+00
