 C 
 1.0000000000000000
    28.0500000000000007    0.0000000000000000    0.0000000000000000
     0.0000000000000000    8.0999999999999996    0.0000000000000000
     0.0000000000000000    0.0000000000000000   33.5000000000000000
 C  
  92
Cartesian
  0.0809243000000000  0.8466630000000001 16.3111999999999995
  0.0671554000000000  2.2466400000000002 16.3004999999999995
  1.3288599999999999  0.1668510000000000 16.0781999999999989
  1.3154200000000000  2.8942999999999999 16.1768000000000001
  2.4842599999999999  0.8347400000000000 15.6353000000000009
  2.5294099999999999  2.2052299999999998 15.7722999999999995
  3.7371099999999999  0.1870850000000000 15.3529000000000000
  3.7557299999999998  2.8400900000000000 15.5668000000000006
  4.9738100000000003  0.8248050000000000 15.0985999999999994
  4.9510800000000001  2.1809400000000001 15.2896999999999998
  6.2306900000000001  0.1399280000000000 15.0747999999999998
  6.2300000000000004  2.8104100000000001 15.4007000000000005
  7.4798000000000000  0.8063590000000000 15.2286000000000001
  7.4999799999999999  2.1750300000000000 15.4840999999999998
  8.7244100000000007  0.1164180000000000 15.3986000000000001
  8.7208600000000001  2.8514300000000001 15.5875000000000004
  9.9356000000000009  0.7558760000000000 15.8040000000000003
  9.9390300000000007  2.1694499999999999 15.7660000000000000
 11.2064000000000004  0.1240410000000000 15.8844999999999992
 11.1487999999999996  2.8423500000000002 16.0655999999999999
 12.3419000000000008  0.8151020000000000 16.3258000000000010
 12.3244000000000007  2.1891600000000002 16.4448000000000008
 13.6227000000000000  0.1679580000000000 16.5926000000000009
 13.5349000000000004  2.8687499999999999 16.8276000000000003
 14.7315000000000005  0.8297410000000000 17.1070999999999991
 14.7353000000000005  2.1791700000000001 17.1948000000000008
 15.9558999999999997  0.1587800000000000 17.3161999999999985
 15.8668999999999993  2.8477800000000002 17.6538000000000004
 17.1164999999999985  0.8497160000000000 17.8142999999999994
 17.0781999999999989  2.2108699999999999 18.0386999999999986
 18.3339999999999996  0.2176260000000000 18.0633000000000017
 18.2889000000000017  2.8908900000000002 18.2171999999999983
 19.5153999999999996  0.8722860000000000 18.3103000000000016
 19.4930999999999983  2.2315600000000000 18.4282000000000004
 20.7820999999999998  0.1936840000000000 18.2516999999999996
 20.7519999999999989  2.8868999999999998 18.3963000000000001
 21.9740000000000002  0.9034370000000000 17.9633000000000003
 21.9823999999999984  2.2386200000000001 18.2983000000000011
 23.2154999999999987  0.2202150000000000 17.6355000000000004
 23.2441999999999993  2.9320499999999998 18.0872999999999990
 24.4210999999999991  0.9203040000000000 17.4136999999999986
 24.4329999999999998  2.2673899999999998 17.7281000000000013
 25.6210999999999984  0.2124570000000000 17.2136999999999993
 25.6535000000000011  2.9017900000000001 17.5198999999999998
 26.7982000000000014  0.8883259999999999 16.8175999999999988
 26.7590000000000003  2.3014899999999998 16.8922999999999988
  0.2272100000000000  4.8824399999999999 16.8475999999999999
  0.2195420000000000  6.2455100000000003 16.7213999999999992
  1.3969000000000000  4.2025899999999998 16.5339999999999989
  1.3810100000000001  6.8831300000000004 16.1881999999999984
  2.6530399999999998  4.8646000000000003 16.1985999999999990
  2.5999699999999999  6.2412099999999997 15.9647000000000006
  3.7950300000000001  4.1985700000000001 15.7805999999999997
  3.7562899999999999  6.9256700000000002 15.5411999999999999
  5.0294400000000001  4.8482900000000004 15.4625000000000004
  5.0014000000000003  6.2428200000000000 15.4359999999999999
  6.2493200000000000  4.1491800000000003 15.3192000000000004
  6.2260999999999997  6.8949699999999998 15.2805000000000000
  7.4834100000000001  4.8389899999999999 15.2919000000000000
  7.4816500000000001  6.2353500000000004 15.2552000000000003
  8.7468900000000005  4.2083399999999997 15.5652000000000008
  8.7259200000000003  6.8202900000000000 15.3401999999999994
  9.9876000000000005  4.9001900000000003 15.4177000000000000
 10.0114000000000001  6.2112499999999997 15.2706999999999997
 11.1859000000000002  4.2076599999999997 15.7455999999999996
 11.2805000000000000  6.9178400000000000 15.6023999999999994
 12.4405000000000001  4.8663499999999997 16.0249999999999986
 12.5071999999999992  6.2563399999999998 15.8379999999999992
 13.5648999999999997  4.2181899999999999 16.6146999999999991
 13.6567000000000007  6.9041800000000002 16.2956000000000003
 14.7832000000000008  4.8945499999999997 16.8844999999999992
 14.8445999999999998  6.2314400000000001 16.6685000000000016
 15.9403000000000006  4.2191299999999998 17.4726999999999997
 15.9924999999999997  6.8434499999999998 17.1616000000000000
 17.1069999999999993  4.9112499999999999 17.7942000000000000
 17.1519000000000013  6.2295800000000003 17.5073000000000008
 18.2805000000000000  4.2778200000000002 18.2527000000000008
 18.3262999999999998  6.9266500000000004 17.8747000000000007
 19.5462999999999987  4.8930999999999996 18.3633999999999986
 19.5159999999999982  6.2727700000000004 18.2836999999999996
 20.8015000000000008  4.2842500000000001 18.4629000000000012
 20.8019999999999996  6.9857100000000001 18.1694999999999993
 22.0600999999999985  4.9225500000000002 18.4231000000000016
 22.0325999999999986  6.2874699999999999 18.1817999999999991
 23.2723000000000013  4.2809299999999997 18.2663000000000011
 23.2666000000000004  6.9689399999999999 17.9054000000000002
 24.5451000000000015  4.9433800000000003 18.0999000000000017
 24.5122999999999998  6.3030499999999998 17.9313000000000002
 25.7180999999999997  4.3014999999999999 17.6879999999999988
 25.6751000000000005  6.9714499999999999 17.5873999999999988
 26.9074999999999989  4.9251199999999997 17.3609000000000009
 26.9100000000000001  6.3478700000000003 17.2917999999999985
