 C 
 1.0000000000000000
    28.0500000000000007    0.0000000000000000    0.0000000000000000
     0.0000000000000000    8.0999999999999996    0.0000000000000000
     0.0000000000000000    0.0000000000000000   33.5000000000000000
 C  
  92
Cartesian
  0.3142220000000000  0.7763610000000000 15.1148000000000007
  0.3523890000000000  2.1495899999999999 14.9230999999999998
  1.4665400000000000  0.1356290000000000 15.5725999999999996
  1.4947299999999999  2.8493200000000001 15.2064000000000004
  2.6751200000000002  0.8197020000000000 15.8468999999999998
  2.6853099999999999  2.2012000000000000 15.6256000000000004
  3.7927599999999999  0.1511660000000000 16.4463000000000008
  3.8959000000000001  2.8317700000000001 16.0378000000000007
  4.9605899999999998  0.8214530000000000 16.7921000000000014
  5.0158100000000001  2.1516099999999998 16.5124999999999993
  6.1722200000000003  0.1322060000000000 17.2192000000000007
  6.2058900000000001  2.8522699999999999 16.9253000000000000
  7.3630199999999997  0.7818950000000000 17.4689000000000014
  7.3955099999999998  2.1777099999999998 17.3089000000000013
  8.5110799999999998  0.1740730000000000 17.9537000000000013
  8.6276399999999995  2.8508399999999998 17.5188999999999986
  9.7636900000000004  0.8156630000000000 18.0216999999999992
  9.7930299999999999  2.1622200000000000 17.7242999999999995
 11.0223999999999993  0.2003800000000000 18.2378000000000000
 11.0246999999999993  2.8521299999999998 17.7175000000000011
 12.2533999999999992  0.9016890000000000 18.1954999999999991
 12.2723999999999993  2.2238799999999999 17.8265999999999991
 13.5173000000000005  0.2058090000000000 18.0364000000000004
 13.4670000000000005  2.9059599999999999 17.5949999999999989
 14.7133000000000003  0.8882550000000000 17.6602999999999994
 14.6952999999999996  2.2292100000000001 17.4218000000000011
 15.9923000000000002  0.2090940000000000 17.6827000000000005
 15.9144000000000005  2.9246400000000001 17.2063999999999986
 17.2216999999999985  0.8729400000000000 17.4112000000000009
 17.1742999999999988  2.1989299999999998 17.0841999999999992
 18.4881999999999991  0.2589480000000000 17.2311000000000014
 18.3591000000000015  2.9403700000000002 16.8024999999999984
 19.6198000000000015  0.8953860000000000 16.7453000000000003
 19.6280999999999999  2.2959100000000001 16.5533999999999999
 20.8288000000000011  0.1948010000000000 16.5078999999999994
 20.7880000000000003  2.9541700000000000 16.2759000000000000
 22.0655000000000001  0.8942390000000000 16.1046000000000014
 22.0424000000000007  2.2164000000000001 15.9760000000000009
 23.2391000000000005  0.2121540000000000 15.8289000000000009
 23.2264000000000017  2.9106100000000001 15.6890000000000001
 24.4529999999999994  0.8595000000000000 15.4164999999999992
 24.4324000000000012  2.2050000000000001 15.3416999999999994
 25.6828000000000003  0.1948920000000000 15.3343000000000007
 25.6910999999999987  2.8581699999999999 15.2284000000000006
 26.8997999999999990  0.7744950000000000 14.9884000000000004
 26.9183999999999983  2.1733799999999999 14.9344999999999999
  0.3044360000000000  4.8129299999999997 15.2708999999999993
  0.2908280000000000  6.1495400000000000 15.6045999999999996
  1.4999300000000000  4.2123999999999997 15.3375000000000004
  1.4472400000000001  6.9159600000000001 15.7748000000000008
  2.7022499999999998  4.8646200000000004 15.7584999999999997
  2.6138300000000001  6.2415300000000000 16.0598999999999990
  3.8666100000000001  4.2098000000000004 16.1361999999999988
  3.7762899999999999  6.8602299999999996 16.5154999999999994
  4.9609399999999999  4.8527399999999998 16.7408999999999999
  4.9582800000000002  6.2107700000000001 16.9637999999999991
  6.1981299999999999  4.2358000000000002 17.0305999999999997
  6.0639599999999998  6.9045600000000000 17.4193999999999996
  7.3772599999999997  4.8916000000000004 17.5371999999999986
  7.2449000000000003  6.2482600000000001 17.7048999999999985
  8.5991700000000009  4.2154999999999996 17.6961000000000013
  8.4829699999999999  6.8818400000000004 18.0605000000000011
  9.7881400000000003  4.8977899999999996 17.9874000000000009
  9.7670499999999993  6.2480399999999996 18.1391999999999989
 11.0366000000000000  4.2258699999999996 17.8972000000000016
 11.0342000000000002  6.9546099999999997 18.3186000000000000
 12.2631999999999994  4.8719500000000000 17.9865999999999993
 12.3168000000000006  6.2427700000000002 18.1890999999999998
 13.5159000000000002  4.2091399999999997 17.7653999999999996
 13.5550999999999995  6.9065000000000003 18.0636000000000010
 14.7856000000000005  4.9407600000000000 17.7632000000000012
 14.7844999999999995  6.2797099999999997 17.9632000000000005
 15.9987999999999992  4.2874999999999996 17.4333999999999989
 16.0509999999999984  6.9532100000000003 17.8629999999999995
 17.2030999999999992  4.9456400000000000 17.2012999999999998
 17.2251000000000012  6.2768600000000001 17.5106000000000002
 18.4133999999999993  4.3162399999999996 16.8547000000000011
 18.4344999999999999  6.9758399999999998 17.3786999999999985
 19.6214000000000013  4.9301199999999996 16.9125000000000014
 19.6405999999999992  6.2952500000000002 17.1258000000000017
 20.8314999999999984  4.2698700000000001 16.6216000000000008
 20.9019000000000013  6.8916500000000003 16.7440999999999995
 22.0563000000000002  4.8878399999999997 16.3936999999999991
 22.1010999999999989  6.2541399999999996 16.4575999999999993
 23.2918999999999983  4.2184600000000003 15.9741999999999997
 23.2693000000000012  6.9465500000000002 16.0734999999999992
 24.5109999999999992  4.8907100000000003 15.7378999999999998
 24.4869999999999983  6.2382200000000001 15.8559999999999999
 25.7115000000000009  4.2031200000000002 15.4460999999999995
 25.7224000000000004  6.9349800000000004 15.6173999999999999
 26.8417999999999992  4.8721699999999997 15.3676999999999992
 26.8488000000000007  6.2403599999999999 15.4926999999999992
