 C                                      
    1.000000000000000     
    28.0500000000000007    0.0000000000000000    0.0000000000000000
     0.0000000000000000    8.0999999999999996    0.0000000000000000
     0.0000000000000000    0.0000000000000000   33.5000000000000000
   C 
    92
Direct
     0.8816827094474178    0.5026419753086415   -0.0946268656716427
     0.8822281639928704    0.6743209876543190   -0.0967164179104429
     0.9249055258467038    0.4179037037037006   -0.0883582089552277
     0.9258823529411799    0.7518975308641984   -0.0931343283582038
     0.9694723707664892    0.5003074074074050   -0.0820895522387985
     0.9696541889483044    0.6699283950617314   -0.0847761194029886
     0.0138770766488392    0.4181160493827178   -0.0817910447761108
     0.0146065240641704    0.7498222222222211   -0.0859701492537397
     0.0596677361853821    0.5024987654321009   -0.0808955223880616
     0.0596852049910908    0.6694320987654336   -0.0841791044776130
     0.1043094474153321    0.4202876543209868   -0.0856716417910377
     0.1044288770053470    0.7529320987654344   -0.0919402985074527
     0.1490524064171126    0.5015037037037047   -0.0925373134328282
     0.1480991087343995    0.6693061728395051   -0.0961194029850674
     0.1920909090909078    0.4209580246913589   -0.1032835820895457
     0.1909675579322609    0.7550753086419775   -0.1098507462686484
     0.2345468805704130    0.5028283950617265   -0.1131343283581998
     0.2335568627450968    0.6703320987654351   -0.1170149253731410
     0.2765390374331531    0.4207160493827189   -0.1262686567164195
     0.2749625668449198    0.7531567901234553   -0.1313432835820976
     0.3199240641711256    0.5026839506172820   -0.1358208955223859
     0.3182074866310174    0.6706666666666692   -0.1391044776119372
     0.3616934046345790    0.4203358024691326   -0.1486567164179036
     0.3597575757575768    0.7528555555555556   -0.1534328358208938
     0.4041283422459898    0.5017938271604905   -0.1579104477611963
     0.4036506238859161    0.6700395061728415   -0.1597014925373088
     0.4472121212121181    0.4189691358024703   -0.1671641791044749
     0.4460570409982196    0.7518333333333302   -0.1707462686567141
     0.4911550802139004    0.5008592592592578   -0.1704477611940263
     0.4900962566844953    0.6687370370370402   -0.1737313432835919
     0.5352299465240620    0.4171925925925919   -0.1740298507462654
     0.5350659536541897    0.7528024691358013   -0.1782089552238801
     0.5780819964349391    0.5013987654320999   -0.1689552238805874
     0.5786310160427774    0.6707395061728363   -0.1716417910447774
     0.6221354723707648    0.4180543209876575   -0.1665671641790993
     0.6227843137254894    0.7511209876543177   -0.1686567164179138
     0.6642067736185382    0.5003938271604937   -0.1558208955223819
     0.6653475935828865    0.6680592592592589   -0.1579104477611963
     0.7069768270944721    0.4192456790123487   -0.1465671641791033
     0.7089411764705886    0.7527037037037019   -0.1507462686567180
     0.7482745098039203    0.5009765432098732   -0.1325373134328345
     0.7494117647058829    0.6724691358024728   -0.1340298507462592
     0.7926238859180046    0.4204913580246910   -0.1232835820895559
     0.7921319073083808    0.7544481481481498   -0.1259701492537175
     0.8316648841354706    0.5033567901234548   -0.1077611940298482
     0.8315187165775413    0.6767987654320962   -0.1086567164179115
     0.8863030303030328    0.0003604061728382   -0.1134328358209018
     0.8858360071301234    0.1726395061728425   -0.1122388059701507
     0.9275258467023164    0.9197703703703723   -0.1008955223880577
     0.9262531194295889    0.2540913580246880   -0.0979104477611941
     0.9713262032085552    0.0029533086419775   -0.0958208955223938
     0.9708484848484815    0.1720604938271606   -0.0937313432835793
     0.0150267379679150    0.9181345679012338   -0.0925373134328282
     0.0143922994652428    0.2508629629629624   -0.0871641791044766
     0.0590474153297649    0.0018818395061757   -0.0946268656716427
     0.0598467023172873    0.1699098765432083   -0.0898507462686666
     0.1033860962566848    0.9193296296296296   -0.0985074626865696
     0.1045286987522260    0.2518962962962945   -0.0910447761194035
     0.1455540106951858    0.0037168271604955   -0.1068656716417848
     0.1467422459893015    0.1721629629629646   -0.1023880597014823
     0.1887190730837816    0.9202765432098801   -0.1161194029850634
     0.1910748663101600    0.2519382716049350   -0.1083582089552237
     0.2300873440285187    0.0038430246913563   -0.1292537313432831
     0.2315390374331585    0.1712753086419738   -0.1247761194029806
     0.2729155080213914    0.9192506172839501   -0.1394029850746250
     0.2747664884135474    0.2545703703703737   -0.1331343283582100
     0.3146998217468777    0.0034795802469105   -0.1519402985074692
     0.3158064171122987    0.1724049382716046   -0.1477611940298402
     0.3587415329768291    0.9213740740740732   -0.1597014925373088
     0.3602317290552577    0.2517530864197539   -0.1540298507462694
     0.4011622103386827    0.0013782592592619   -0.1713432835820754
     0.4013903743315481    0.1709123456790138   -0.1683582089552118
     0.4455686274509816    0.9165604938271628   -0.1773134328358168
     0.4461390374331557    0.2525407407407414   -0.1731343283582163
     0.4898752228164014    0.0018139382716029   -0.1835820895522460
     0.4899037433155087    0.1699604938271619   -0.1817910447761193
     0.5344242424242438    0.9201716049382753   -0.1838805970149195
     0.5350124777183609    0.2506925925925927   -0.1808955223880560
     0.5796755793226396    0.0036333950617262   -0.1829850746268704
     0.5794402852049885    0.1710790123456789   -0.1808955223880560
     0.6239928698752237    0.9211975308641982   -0.1749253731343288
     0.6232905525846704    0.2519938271604971   -0.1728358208955143
     0.6676149732620331    0.0017270000000025   -0.1704477611940263
     0.6678930481283416    0.1716172839506171   -0.1689552238805874
     0.7108734402852050    0.9196950617283974   -0.1585074626865577
     0.7096327985739777    0.2545530864197545   -0.1552238805970063
     0.7535258467023169    0.0034666790123481   -0.1492537313432791
     0.7528698752228138    0.1743567901234542   -0.1468656716417911
     0.7946844919786074    0.9193061728395051   -0.1343283582089470
     0.7945668449197854    0.2550000000000026   -0.1322388059701467
     0.8368306595365453    0.0010009086419771   -0.1268656716417951
     0.8364313725490220    0.1724827160493803   -0.1253731343283562
 
  0.00000000E+00  0.00000000E+00  0.00000000E+00
  0.00000000E+00  0.00000000E+00  0.00000000E+00
  0.00000000E+00  0.00000000E+00  0.00000000E+00
  0.00000000E+00  0.00000000E+00  0.00000000E+00
  0.00000000E+00  0.00000000E+00  0.00000000E+00
  0.00000000E+00  0.00000000E+00  0.00000000E+00
  0.00000000E+00  0.00000000E+00  0.00000000E+00
  0.00000000E+00  0.00000000E+00  0.00000000E+00
  0.00000000E+00  0.00000000E+00  0.00000000E+00
  0.00000000E+00  0.00000000E+00  0.00000000E+00
  0.00000000E+00  0.00000000E+00  0.00000000E+00
  0.00000000E+00  0.00000000E+00  0.00000000E+00
  0.00000000E+00  0.00000000E+00  0.00000000E+00
  0.00000000E+00  0.00000000E+00  0.00000000E+00
  0.00000000E+00  0.00000000E+00  0.00000000E+00
  0.00000000E+00  0.00000000E+00  0.00000000E+00
  0.00000000E+00  0.00000000E+00  0.00000000E+00
  0.00000000E+00  0.00000000E+00  0.00000000E+00
  0.00000000E+00  0.00000000E+00  0.00000000E+00
  0.00000000E+00  0.00000000E+00  0.00000000E+00
  0.00000000E+00  0.00000000E+00  0.00000000E+00
  0.00000000E+00  0.00000000E+00  0.00000000E+00
  0.00000000E+00  0.00000000E+00  0.00000000E+00
  0.00000000E+00  0.00000000E+00  0.00000000E+00
  0.00000000E+00  0.00000000E+00  0.00000000E+00
  0.00000000E+00  0.00000000E+00  0.00000000E+00
  0.00000000E+00  0.00000000E+00  0.00000000E+00
  0.00000000E+00  0.00000000E+00  0.00000000E+00
  0.00000000E+00  0.00000000E+00  0.00000000E+00
  0.00000000E+00  0.00000000E+00  0.00000000E+00
  0.00000000E+00  0.00000000E+00  0.00000000E+00
  0.00000000E+00  0.00000000E+00  0.00000000E+00
  0.00000000E+00  0.00000000E+00  0.00000000E+00
  0.00000000E+00  0.00000000E+00  0.00000000E+00
  0.00000000E+00  0.00000000E+00  0.00000000E+00
  0.00000000E+00  0.00000000E+00  0.00000000E+00
  0.00000000E+00  0.00000000E+00  0.00000000E+00
  0.00000000E+00  0.00000000E+00  0.00000000E+00
  0.00000000E+00  0.00000000E+00  0.00000000E+00
  0.00000000E+00  0.00000000E+00  0.00000000E+00
  0.00000000E+00  0.00000000E+00  0.00000000E+00
  0.00000000E+00  0.00000000E+00  0.00000000E+00
  0.00000000E+00  0.00000000E+00  0.00000000E+00
  0.00000000E+00  0.00000000E+00  0.00000000E+00
  0.00000000E+00  0.00000000E+00  0.00000000E+00
  0.00000000E+00  0.00000000E+00  0.00000000E+00
  0.00000000E+00  0.00000000E+00  0.00000000E+00
  0.00000000E+00  0.00000000E+00  0.00000000E+00
  0.00000000E+00  0.00000000E+00  0.00000000E+00
  0.00000000E+00  0.00000000E+00  0.00000000E+00
  0.00000000E+00  0.00000000E+00  0.00000000E+00
  0.00000000E+00  0.00000000E+00  0.00000000E+00
  0.00000000E+00  0.00000000E+00  0.00000000E+00
  0.00000000E+00  0.00000000E+00  0.00000000E+00
  0.00000000E+00  0.00000000E+00  0.00000000E+00
  0.00000000E+00  0.00000000E+00  0.00000000E+00
  0.00000000E+00  0.00000000E+00  0.00000000E+00
  0.00000000E+00  0.00000000E+00  0.00000000E+00
  0.00000000E+00  0.00000000E+00  0.00000000E+00
  0.00000000E+00  0.00000000E+00  0.00000000E+00
  0.00000000E+00  0.00000000E+00  0.00000000E+00
  0.00000000E+00  0.00000000E+00  0.00000000E+00
  0.00000000E+00  0.00000000E+00  0.00000000E+00
  0.00000000E+00  0.00000000E+00  0.00000000E+00
  0.00000000E+00  0.00000000E+00  0.00000000E+00
  0.00000000E+00  0.00000000E+00  0.00000000E+00
  0.00000000E+00  0.00000000E+00  0.00000000E+00
  0.00000000E+00  0.00000000E+00  0.00000000E+00
  0.00000000E+00  0.00000000E+00  0.00000000E+00
  0.00000000E+00  0.00000000E+00  0.00000000E+00
  0.00000000E+00  0.00000000E+00  0.00000000E+00
  0.00000000E+00  0.00000000E+00  0.00000000E+00
  0.00000000E+00  0.00000000E+00  0.00000000E+00
  0.00000000E+00  0.00000000E+00  0.00000000E+00
  0.00000000E+00  0.00000000E+00  0.00000000E+00
  0.00000000E+00  0.00000000E+00  0.00000000E+00
  0.00000000E+00  0.00000000E+00  0.00000000E+00
  0.00000000E+00  0.00000000E+00  0.00000000E+00
  0.00000000E+00  0.00000000E+00  0.00000000E+00
  0.00000000E+00  0.00000000E+00  0.00000000E+00
  0.00000000E+00  0.00000000E+00  0.00000000E+00
  0.00000000E+00  0.00000000E+00  0.00000000E+00
  0.00000000E+00  0.00000000E+00  0.00000000E+00
  0.00000000E+00  0.00000000E+00  0.00000000E+00
  0.00000000E+00  0.00000000E+00  0.00000000E+00
  0.00000000E+00  0.00000000E+00  0.00000000E+00
  0.00000000E+00  0.00000000E+00  0.00000000E+00
  0.00000000E+00  0.00000000E+00  0.00000000E+00
  0.00000000E+00  0.00000000E+00  0.00000000E+00
  0.00000000E+00  0.00000000E+00  0.00000000E+00
  0.00000000E+00  0.00000000E+00  0.00000000E+00
  0.00000000E+00  0.00000000E+00  0.00000000E+00
