 C 
 1.0000000000000000
    28.0500000000000007    0.0000000000000000    0.0000000000000000
     0.0000000000000000    8.0999999999999996    0.0000000000000000
     0.0000000000000000    0.0000000000000000   33.5000000000000000
 C  
  92
Cartesian
 24.7312000000000012  4.0713999999999997 -2415.1700000000000728
 24.7465000000000011  5.4619999999999997 -2415.2399999999997817
 25.9436000000000000  3.3850199999999999 -2414.9600000000000364
 25.9710000000000001  6.0903700000000001 -2415.1199999999998909
 27.1936999999999998  4.0524899999999997 -2414.7500000000000000
 27.1987999999999985  5.4264200000000002 -2414.8400000000001455
  0.3892520000000000  3.3867400000000001 -2414.7399999999997817
  0.4097130000000000  6.0735599999999996 -2414.8800000000001091
  1.6736800000000001  4.0702400000000001 -2414.7100000000000364
  1.6741699999999999  5.4223999999999997 -2414.8200000000001637
  2.9258799999999998  3.4043299999999999 -2414.8699999999998909
  2.9292300000000000  6.0987499999999999 -2415.0799999999999272
  4.1809200000000004  4.0621799999999997 -2415.0999999999999091
  4.1541800000000002  5.4213800000000001 -2415.2199999999997999
  5.3881500000000004  3.4097599999999999 -2415.4600000000000364
  5.3566399999999996  6.1161099999999999 -2415.6799999999998363
  6.5790400000000000  4.0729100000000003 -2415.7899999999999636
  6.5512699999999997  5.4296899999999999 -2415.9200000000000728
  7.7569200000000000  3.4077999999999999 -2416.2300000000000182
  7.7126999999999999  6.1005700000000003 -2416.4000000000000909
  8.9738699999999998  4.0717400000000001 -2416.5500000000001819
  8.9257200000000001  5.4324000000000003 -2416.6599999999998545
 10.1455000000000002  3.4047200000000002 -2416.9800000000000182
 10.0912000000000006  6.0981300000000003 -2417.1399999999998727
 11.3358000000000008  4.0645300000000004 -2417.2899999999999636
 11.3224000000000000  5.4273199999999999 -2417.3499999999999091
 12.5442999999999998  3.3936500000000001 -2417.5999999999999091
 12.5119000000000007  6.0898500000000002 -2417.7199999999997999
 13.7768999999999995  4.0569600000000001 -2417.7100000000000364
 13.7471999999999994  5.4167699999999996 -2417.8200000000001637
 15.0131999999999994  3.3792599999999999 -2417.8299999999999272
 15.0085999999999995  6.0976999999999997 -2417.9699999999997999
 16.2151999999999994  4.0613299999999999 -2417.6599999999998545
 16.2305999999999990  5.4329900000000002 -2417.7500000000000000
 17.4509000000000007  3.3862399999999999 -2417.5799999999999272
 17.4691000000000010  6.0840800000000002 -2417.6500000000000909
 18.6310000000000002  4.0531899999999998 -2417.2199999999997999
 18.6630000000000003  5.4112799999999996 -2417.2899999999999636
 19.8307000000000002  3.3958900000000001 -2416.9099999999998545
 19.8857999999999997  6.0968999999999998 -2417.0500000000001819
 20.9891000000000005  4.0579099999999997 -2416.4400000000000546
 21.0210000000000008  5.4470000000000001 -2416.4899999999997817
 22.2331000000000003  3.4059800000000000 -2416.1300000000001091
 22.2193000000000005  6.1110300000000004 -2416.2199999999997999
 23.3281999999999989  4.0771899999999999 -2415.6100000000001273
 23.3241000000000014  5.4820700000000002 -2415.6399999999998727
 24.8608000000000011  0.0029192900000000 -2415.8000000000001819
 24.8476999999999997  1.3983800000000000 -2415.7600000000002183
 26.0170999999999992  7.4501400000000002 -2415.3800000000001091
 25.9814000000000007  2.0581399999999999 -2415.2800000000002001
 27.2456999999999994  0.0239218000000000 -2415.2100000000000364
 27.2322999999999986  1.3936900000000001 -2415.1399999999998727
  0.4215000000000000  7.4368900000000000 -2415.0999999999999091
  0.4037040000000000  2.0319900000000000 -2414.9200000000000728
  1.6562800000000000  0.0152429000000000 -2415.1700000000000728
  1.6787000000000001  1.3762700000000001 -2415.0100000000002183
  2.8999799999999998  7.4465700000000004 -2415.3000000000001819
  2.9320300000000001  2.0403600000000002 -2415.0500000000001819
  4.0827900000000001  0.0301063000000000 -2415.5799999999999272
  4.1161199999999996  1.3945200000000000 -2415.4299999999998363
  5.2935699999999999  7.4542400000000004 -2415.8899999999998727
  5.3596500000000002  2.0407000000000002 -2415.6300000000001091
  6.4539499999999999  0.0311285000000000 -2416.3299999999999272
  6.4946700000000002  1.3873300000000000 -2416.1799999999998363
  7.6552800000000003  7.4459299999999997 -2416.6700000000000728
  7.7072000000000003  2.0620200000000000 -2416.4600000000000364
  8.8273299999999999  0.0281846000000000 -2417.0900000000001455
  8.8583700000000007  1.3964799999999999 -2416.9499999999998181
 10.0626999999999995  7.4631299999999996 -2417.3499999999999091
 10.1044999999999998  2.0392000000000001 -2417.1599999999998545
 11.2525999999999993  0.0111639000000000 -2417.7399999999997817
 11.2590000000000003  1.3843900000000000 -2417.6399999999998727
 12.4982000000000006  7.4241400000000004 -2417.9400000000000546
 12.5142000000000007  2.0455800000000002 -2417.8000000000001819
 13.7409999999999997  0.0146929000000000 -2418.1500000000000909
 13.7417999999999996  1.3766799999999999 -2418.0900000000001455
 14.9906000000000006  7.4533899999999997 -2418.1599999999998545
 15.0070999999999994  2.0306099999999998 -2418.0599999999999454
 16.2598999999999982  0.0294305000000000 -2418.1300000000001091
 16.2532999999999994  1.3857400000000000 -2418.0599999999999454
 17.5030000000000001  7.4617000000000004 -2417.8600000000001273
 17.4832999999999998  2.0411500000000000 -2417.7899999999999636
 18.7266000000000012  0.0139887000000000 -2417.7100000000000364
 18.7344000000000008  1.3900999999999999 -2417.6599999999998545
 19.9400000000000013  7.4495300000000002 -2417.3099999999999454
 19.9052000000000007  2.0618799999999999 -2417.1999999999998181
 21.1363999999999983  0.0280801000000000 -2417.0000000000000000
 21.1179999999999986  1.4122900000000000 -2416.9200000000000728
 22.2909000000000006  7.4463800000000004 -2416.5000000000000000
 22.2876000000000012  2.0655000000000001 -2416.4299999999998363
 23.4730999999999987  0.0081073600000000 -2416.2500000000000000
 23.4619000000000000  1.3971100000000001 -2416.1999999999998181
