 C                                      
    1.000000000000000     
    28.0500000000000007    0.0000000000000000    0.0000000000000000
     0.0000000000000000    8.0999999999999996    0.0000000000000000
     0.0000000000000000    0.0000000000000000   33.5000000000000000
   C 
    92
Direct
     0.0079098039215708    0.1105680246913607    0.5546746268656690
     0.0055387878787911    0.2822691358024656    0.5510358208955211
     0.0496545454545441    0.0265670370370401    0.5478567164179111
     0.0489329768270963    0.3570716049382696    0.5474238805970160
     0.0954409982174695    0.1028756790123424    0.5408119402985108
     0.0949793226381459    0.2749604938271588    0.5412835820895552
     0.1398449197860998    0.0201045679012353    0.5306029850746299
     0.1384281639928702    0.3557456790123439    0.5306776119402983
     0.1830641711229930    0.1005969135802474    0.5220537313432843
     0.1812770053475958    0.2765604938271622    0.5221134328358232
     0.2233301247771848    0.0208697530864228    0.5048238805970158
     0.2239076648841376    0.3574530864197527    0.5064895522388042
     0.2671080213903778    0.1024346913580274    0.4944029850746290
     0.2663383244206798    0.2753679012345671    0.4947671641791018
     0.3097493761140839    0.0236191358024698    0.4815522388059676
     0.3099133689839562    0.3591851851851828    0.4847074626865648
     0.3531664884135495    0.1048528395061723    0.4725283582089546
     0.3544491978609656    0.2783197530864214    0.4730716417910443
     0.3951372549019609    0.0179772839506143    0.4597970149253712
     0.3959286987522290    0.3592469135802503    0.4620507462686589
     0.4395971479500886    0.1071838271604904    0.4547432835820899
     0.4399714795008904    0.2746728395061737    0.4524776119402958
     0.4843030303030318    0.0194060493827166    0.4465462686567179
     0.4857183600713029    0.3520074074074060    0.4492955223880628
     0.5286167557932231    0.1038801234567899    0.4478268656716438
     0.5305632798573967    0.2755555555555560    0.4465910447761203
     0.5729411764705858    0.0269802469135811    0.4547194029850772
     0.5762103386809301    0.3560740740740727    0.4484776119402980
     0.6171051693404621    0.1028597530864204    0.4639014925373104
     0.6194795008912664    0.2743444444444449    0.4561701492537296
     0.6588270944741552    0.0254109876543183    0.4785850746268636
     0.6624313725490225    0.3532407407407376    0.4670059701492519
     0.7007557932263779    0.1091885185185220    0.4919880597014910
     0.7018431372549045    0.2710345679012320    0.4846567164179092
     0.7401319073083812    0.0248581481481480    0.5103373134328351
     0.7439893048128354    0.3568148148148182    0.4947671641791018
     0.7808770053475911    0.1071345679012339    0.5227910447761204
     0.7835828877005326    0.2782444444444465    0.5151641791044810
     0.8227914438502708    0.0232080246913569    0.5365492537313443
     0.8256969696969705    0.3624641975308620    0.5229223880597047
     0.8684919786096259    0.0992293827160466    0.5419044776119435
     0.8695436720142595    0.2694197530864173    0.5337999999999994
     0.9122994652406433    0.0210619753086405    0.5501343283582116
     0.9121497326203212    0.3518395061728370    0.5397970149253766
     0.9554117647058789    0.1008295061728361    0.5575283582089554
     0.9543137254901950    0.2754975308642003    0.5508417910447747
     0.0069856327985747    0.6003395061728369    0.5534149253731329
     0.0072684848484883    0.7709790123456770    0.5514477611940265
     0.0507183600713006    0.5220382716049414    0.5464029850746286
     0.0502010695187138    0.8603320987654328    0.5450000000000017
     0.0938887700534750    0.6087308641975326    0.5364776119402990
     0.0935525846702348    0.7791061728395050    0.5376119402985040
     0.1364310160427777    0.5251259259259271    0.5237910447761180
     0.1365490196078412    0.8554592592592627    0.5245791044776098
     0.1776787878787900    0.6052790123456759    0.5098119402985049
     0.1784844919786082    0.7719950617283970    0.5106358208955228
     0.2208188948306571    0.5246802469135829    0.4996388059701502
     0.2196877005347559    0.8520024691358046    0.4975044776119404
     0.2631108734402829    0.6016555555555527    0.4863701492537302
     0.2620303030303006    0.7731012345679034    0.4834656716417882
     0.3052488413547252    0.5192666666666668    0.4755283582089547
     0.3066609625668448    0.8563419753086450    0.4745164179104506
     0.3490737967914441    0.5992950617283981    0.4604746268656683
     0.3495800356506251    0.7705913580246886    0.4617313432835815
     0.3947914438502664    0.5223333333333358    0.4568597014925402
     0.3944206773618504    0.8493358024691346    0.4568597014925402
     0.4400570409982194    0.6017049382716024    0.4483014925373112
     0.4405882352941148    0.7686111111111131    0.4485701492537331
     0.4854795008912660    0.5267864197530869    0.4502328358208985
     0.4851301247771858    0.8524938271604938    0.4466149253731331
     0.5300998217468802    0.6023037037037042    0.4475671641791052
     0.5296114081996421    0.7732456790123479    0.4452059701492530
     0.5759144385026715    0.5236234567901263    0.4497910447761200
     0.5730017825311933    0.8577358024691364    0.4528507462686591
     0.6187878787878773    0.6051580246913559    0.4569074626865657
     0.6182638146167534    0.7774419753086406    0.4605731343283566
     0.6616292335115901    0.5255604938271574    0.4666268656716426
     0.6595436720142587    0.8559629629629626    0.4754059701492537
     0.7049625668449195    0.6073407407407387    0.4781791044776114
     0.7025597147950080    0.7761037037037042    0.4879074626865645
     0.7462745098039250    0.5267271604938273    0.4903611940298518
     0.7399073083778944    0.8523765432098784    0.5066447761194013
     0.7858074866310147    0.6083283950617258    0.5061402985074608
     0.7796862745098068    0.7660691358024678    0.5196686567164193
     0.8278609625668452    0.5285913580246913    0.5163283582089520
     0.8226559714794988    0.8536888888888896    0.5367402985074605
     0.8691515151515148    0.6057222222222194    0.5324656716417877
     0.8677825311942939    0.7698320987654341    0.5401970149253756
     0.9126916221033881    0.5183703703703699    0.5431343283582066
     0.9111586452762950    0.8469308641975317    0.5482358208955205
     0.9547771836007115    0.6025259259259244    0.5534358208955226
     0.9556827094474158    0.7719185185185182    0.5529194029850757
 
  0.00000000E+00  0.00000000E+00  0.00000000E+00
  0.00000000E+00  0.00000000E+00  0.00000000E+00
  0.00000000E+00  0.00000000E+00  0.00000000E+00
  0.00000000E+00  0.00000000E+00  0.00000000E+00
  0.00000000E+00  0.00000000E+00  0.00000000E+00
  0.00000000E+00  0.00000000E+00  0.00000000E+00
  0.00000000E+00  0.00000000E+00  0.00000000E+00
  0.00000000E+00  0.00000000E+00  0.00000000E+00
  0.00000000E+00  0.00000000E+00  0.00000000E+00
  0.00000000E+00  0.00000000E+00  0.00000000E+00
  0.00000000E+00  0.00000000E+00  0.00000000E+00
  0.00000000E+00  0.00000000E+00  0.00000000E+00
  0.00000000E+00  0.00000000E+00  0.00000000E+00
  0.00000000E+00  0.00000000E+00  0.00000000E+00
  0.00000000E+00  0.00000000E+00  0.00000000E+00
  0.00000000E+00  0.00000000E+00  0.00000000E+00
  0.00000000E+00  0.00000000E+00  0.00000000E+00
  0.00000000E+00  0.00000000E+00  0.00000000E+00
  0.00000000E+00  0.00000000E+00  0.00000000E+00
  0.00000000E+00  0.00000000E+00  0.00000000E+00
  0.00000000E+00  0.00000000E+00  0.00000000E+00
  0.00000000E+00  0.00000000E+00  0.00000000E+00
  0.00000000E+00  0.00000000E+00  0.00000000E+00
  0.00000000E+00  0.00000000E+00  0.00000000E+00
  0.00000000E+00  0.00000000E+00  0.00000000E+00
  0.00000000E+00  0.00000000E+00  0.00000000E+00
  0.00000000E+00  0.00000000E+00  0.00000000E+00
  0.00000000E+00  0.00000000E+00  0.00000000E+00
  0.00000000E+00  0.00000000E+00  0.00000000E+00
  0.00000000E+00  0.00000000E+00  0.00000000E+00
  0.00000000E+00  0.00000000E+00  0.00000000E+00
  0.00000000E+00  0.00000000E+00  0.00000000E+00
  0.00000000E+00  0.00000000E+00  0.00000000E+00
  0.00000000E+00  0.00000000E+00  0.00000000E+00
  0.00000000E+00  0.00000000E+00  0.00000000E+00
  0.00000000E+00  0.00000000E+00  0.00000000E+00
  0.00000000E+00  0.00000000E+00  0.00000000E+00
  0.00000000E+00  0.00000000E+00  0.00000000E+00
  0.00000000E+00  0.00000000E+00  0.00000000E+00
  0.00000000E+00  0.00000000E+00  0.00000000E+00
  0.00000000E+00  0.00000000E+00  0.00000000E+00
  0.00000000E+00  0.00000000E+00  0.00000000E+00
  0.00000000E+00  0.00000000E+00  0.00000000E+00
  0.00000000E+00  0.00000000E+00  0.00000000E+00
  0.00000000E+00  0.00000000E+00  0.00000000E+00
  0.00000000E+00  0.00000000E+00  0.00000000E+00
  0.00000000E+00  0.00000000E+00  0.00000000E+00
  0.00000000E+00  0.00000000E+00  0.00000000E+00
  0.00000000E+00  0.00000000E+00  0.00000000E+00
  0.00000000E+00  0.00000000E+00  0.00000000E+00
  0.00000000E+00  0.00000000E+00  0.00000000E+00
  0.00000000E+00  0.00000000E+00  0.00000000E+00
  0.00000000E+00  0.00000000E+00  0.00000000E+00
  0.00000000E+00  0.00000000E+00  0.00000000E+00
  0.00000000E+00  0.00000000E+00  0.00000000E+00
  0.00000000E+00  0.00000000E+00  0.00000000E+00
  0.00000000E+00  0.00000000E+00  0.00000000E+00
  0.00000000E+00  0.00000000E+00  0.00000000E+00
  0.00000000E+00  0.00000000E+00  0.00000000E+00
  0.00000000E+00  0.00000000E+00  0.00000000E+00
  0.00000000E+00  0.00000000E+00  0.00000000E+00
  0.00000000E+00  0.00000000E+00  0.00000000E+00
  0.00000000E+00  0.00000000E+00  0.00000000E+00
  0.00000000E+00  0.00000000E+00  0.00000000E+00
  0.00000000E+00  0.00000000E+00  0.00000000E+00
  0.00000000E+00  0.00000000E+00  0.00000000E+00
  0.00000000E+00  0.00000000E+00  0.00000000E+00
  0.00000000E+00  0.00000000E+00  0.00000000E+00
  0.00000000E+00  0.00000000E+00  0.00000000E+00
  0.00000000E+00  0.00000000E+00  0.00000000E+00
  0.00000000E+00  0.00000000E+00  0.00000000E+00
  0.00000000E+00  0.00000000E+00  0.00000000E+00
  0.00000000E+00  0.00000000E+00  0.00000000E+00
  0.00000000E+00  0.00000000E+00  0.00000000E+00
  0.00000000E+00  0.00000000E+00  0.00000000E+00
  0.00000000E+00  0.00000000E+00  0.00000000E+00
  0.00000000E+00  0.00000000E+00  0.00000000E+00
  0.00000000E+00  0.00000000E+00  0.00000000E+00
  0.00000000E+00  0.00000000E+00  0.00000000E+00
  0.00000000E+00  0.00000000E+00  0.00000000E+00
  0.00000000E+00  0.00000000E+00  0.00000000E+00
  0.00000000E+00  0.00000000E+00  0.00000000E+00
  0.00000000E+00  0.00000000E+00  0.00000000E+00
  0.00000000E+00  0.00000000E+00  0.00000000E+00
  0.00000000E+00  0.00000000E+00  0.00000000E+00
  0.00000000E+00  0.00000000E+00  0.00000000E+00
  0.00000000E+00  0.00000000E+00  0.00000000E+00
  0.00000000E+00  0.00000000E+00  0.00000000E+00
  0.00000000E+00  0.00000000E+00  0.00000000E+00
  0.00000000E+00  0.00000000E+00  0.00000000E+00
  0.00000000E+00  0.00000000E+00  0.00000000E+00
  0.00000000E+00  0.00000000E+00  0.00000000E+00
