 C 
 1.0000000000000000
    28.0500000000000007    0.0000000000000000    0.0000000000000000
     0.0000000000000000    8.0999999999999996    0.0000000000000000
     0.0000000000000000    0.0000000000000000   33.5000000000000000
 C  
  92
Cartesian
  0.2218700000000000  0.8956010000000000 18.5816000000000017
  0.1553630000000000  2.2863799999999999 18.4597000000000016
  1.3928100000000001  0.2151930000000000 18.3532000000000011
  1.3725700000000001  2.8922800000000000 18.3386999999999993
  2.6771199999999999  0.8332930000000000 18.1172000000000004
  2.6641699999999999  2.2271800000000002 18.1329999999999991
  3.9226500000000000  0.1628470000000000 17.7752000000000017
  3.8829099999999999  2.8815400000000002 17.7776999999999994
  5.1349499999999999  0.8148350000000000 17.4888000000000012
  5.0848199999999997  2.2401399999999998 17.4908000000000001
  6.2644099999999998  0.1690450000000000 16.9116000000000000
  6.2806100000000002  2.8953700000000002 16.9674000000000014
  7.4923799999999998  0.8297210000000000 16.5625000000000000
  7.4707900000000000  2.2304800000000000 16.5747000000000000
  8.6884700000000006  0.1913150000000000 16.1320000000000014
  8.6930700000000005  2.9094000000000002 16.2377000000000002
  9.9063199999999991  0.8493080000000000 15.8297000000000008
  9.9422999999999995  2.2543899999999999 15.8478999999999992
 11.0836000000000006  0.1456160000000000 15.4032000000000000
 11.1058000000000003  2.9098999999999999 15.4786999999999999
 12.3307000000000002  0.8681890000000000 15.2339000000000002
 12.3412000000000006  2.2248500000000000 15.1579999999999995
 13.5846999999999998  0.1571890000000000 14.9593000000000007
 13.6243999999999996  2.8512599999999999 15.0513999999999992
 14.8277000000000001  0.8414290000000000 15.0022000000000002
 14.8823000000000008  2.2320000000000002 14.9608000000000008
 16.0710000000000015  0.2185400000000000 15.2331000000000003
 16.1627000000000010  2.8841999999999999 15.0239999999999991
 17.3097999999999992  0.8331640000000000 15.5406999999999993
 17.3764000000000003  2.2221899999999999 15.2817000000000007
 18.4801000000000002  0.2058290000000000 16.0325999999999986
 18.5811999999999991  2.8612500000000001 15.6447000000000003
 19.6561999999999983  0.8844270000000000 16.4816000000000003
 19.6866999999999983  2.1953800000000001 16.2360000000000007
 20.7606999999999999  0.2013510000000000 17.0962999999999994
 20.8689000000000000  2.8902000000000001 16.5747000000000000
 21.9036000000000008  0.8677900000000000 17.5135000000000005
 21.9795000000000016  2.2537799999999999 17.2579999999999991
 23.0792999999999999  0.1879850000000000 17.9743999999999993
 23.1607999999999983  2.9359600000000001 17.5179000000000009
 24.3612000000000002  0.8037580000000000 18.1538000000000004
 24.3906999999999989  2.1823000000000001 17.8823000000000008
 25.5899999999999999  0.1706020000000000 18.4295000000000009
 25.5857999999999990  2.8498999999999999 18.0832000000000015
 26.7992999999999988  0.8167190000000000 18.6771999999999991
 26.7684999999999995  2.2315299999999998 18.4531999999999989
  0.1959470000000000  4.8627500000000001 18.5394000000000005
  0.2038810000000000  6.2449300000000001 18.4735000000000014
  1.4226500000000000  4.2285100000000000 18.3045000000000009
  1.4081399999999999  6.9686899999999996 18.2575000000000003
  2.6335799999999998  4.9307200000000000 17.9720000000000013
  2.6241500000000002  6.3107600000000001 18.0100000000000016
  3.8268900000000001  4.2535200000000000 17.5470000000000006
  3.8302000000000000  6.9292199999999999 17.5733999999999995
  4.9838899999999997  4.9027599999999998 17.0787000000000013
  5.0064900000000003  6.2531600000000003 17.1063000000000009
  6.1939700000000002  4.2499099999999999 16.7378999999999998
  6.1622399999999997  6.9012200000000004 16.6663999999999994
  7.3802599999999998  4.8734099999999998 16.2933999999999983
  7.3499499999999998  6.2621200000000004 16.1961000000000013
  8.5622299999999996  4.2060599999999999 15.9301999999999992
  8.6018399999999993  6.9363700000000001 15.8963000000000001
  9.7915200000000002  4.8542899999999998 15.4259000000000004
  9.8057200000000009  6.2417899999999999 15.4680000000000000
 11.0739000000000001  4.2309000000000001 15.3048000000000002
 11.0634999999999994  6.8796200000000001 15.3048000000000002
 12.3436000000000003  4.8738099999999998 15.0181000000000004
 12.3584999999999994  6.2257499999999997 15.0271000000000008
 13.6176999999999992  4.2669699999999997 15.0828000000000007
 13.6079000000000008  6.9051999999999998 14.9616000000000007
 14.8693000000000008  4.8786600000000000 14.9934999999999992
 14.8556000000000008  6.2632899999999996 14.9144000000000005
 16.1543999999999990  4.2413499999999997 15.0679999999999996
 16.0727000000000011  6.9476599999999999 15.1705000000000005
 17.3569999999999993  4.9017799999999996 15.3064000000000000
 17.3423000000000016  6.2972799999999998 15.4291999999999998
 18.5587000000000018  4.2570399999999999 15.6319999999999997
 18.5001999999999995  6.9333000000000000 15.9260999999999999
 19.7742000000000004  4.9194599999999999 16.0189999999999984
 19.7068000000000012  6.2864399999999998 16.3448999999999991
 20.9329999999999998  4.2664900000000001 16.4270999999999994
 20.7544000000000004  6.9042500000000002 16.9725999999999999
 22.0418999999999983  4.9274600000000000 16.9557000000000002
 21.8702000000000005  6.2051600000000002 17.4088999999999992
 23.2214999999999989  4.2815899999999996 17.2970000000000006
 23.0755000000000017  6.9148800000000001 17.9807999999999986
 24.3796999999999997  4.9063499999999998 17.8375999999999983
 24.3413000000000004  6.2356400000000001 18.0965999999999987
 25.6009999999999991  4.1988000000000003 18.1950000000000003
 25.5579999999999998  6.8601400000000003 18.3658999999999999
 26.7815000000000012  4.8804600000000002 18.5400999999999989
 26.8068999999999988  6.2525399999999998 18.5228000000000002
