 C 
 1.0000000000000000
    28.0500000000000007    0.0000000000000000    0.0000000000000000
     0.0000000000000000    8.0999999999999996    0.0000000000000000
     0.0000000000000000    0.0000000000000000   33.5000000000000000
 C  
  92
Cartesian
  0.1867670000000000  0.8060170000000000 18.0300000000000011
  0.1650160000000000  2.1585000000000001 18.1154000000000011
  1.3553599999999999  0.1801440000000000 18.1912999999999982
  1.3327599999999999  2.8545500000000001 18.3625000000000007
  2.5399799999999999  0.8833240000000000 17.9222000000000001
  2.5964900000000002  2.2093699999999998 18.1655000000000015
  3.7605300000000002  0.1938560000000000 17.8235999999999990
  3.8093699999999999  2.9340400000000000 18.1696999999999989
  4.9688600000000003  0.9269060000000000 17.5417999999999985
  5.0152200000000002  2.2470699999999999 17.7350999999999992
  6.1560100000000002  0.1884890000000000 17.1932000000000009
  6.2537399999999996  2.8761700000000001 17.4600000000000009
  7.3257599999999998  0.8500640000000000 16.8430000000000000
  7.3622899999999998  2.2001900000000001 16.9403000000000006
  8.5344999999999995  0.1538840000000000 16.6125000000000007
  8.6540599999999994  2.9009399999999999 16.6652999999999984
  9.7660900000000002  0.8344340000000000 16.1647999999999996
  9.7820999999999998  2.2076300000000000 16.1658000000000008
 11.0129999999999999  0.1691900000000000 15.9062000000000001
 11.0658999999999992  2.8806600000000002 16.0427000000000000
 12.1940000000000008  0.8351730000000001 15.5793999999999997
 12.2759000000000000  2.2029100000000001 15.6521000000000008
 13.4938000000000002  0.1808620000000000 15.3485999999999994
 13.5312000000000001  2.8671099999999998 15.6529000000000007
 14.7495999999999992  0.8423700000000000 15.2317000000000000
 14.7184000000000008  2.2099600000000001 15.3465000000000007
 15.9931999999999999  0.1537300000000000 15.1508000000000003
 15.9753000000000007  2.8314200000000000 15.4839000000000002
 17.2074999999999996  0.8291570000000000 15.1889000000000003
 17.2190000000000012  2.1725300000000001 15.5195000000000007
 18.4553000000000011  0.2016300000000000 15.3934999999999995
 18.4365999999999985  2.8460399999999999 15.8039000000000005
 19.6676000000000002  0.8422670000000000 15.5067000000000004
 19.7247999999999983  2.2277399999999998 15.6822999999999997
 20.9076999999999984  0.1519800000000000 15.7184000000000008
 20.8963000000000001  2.8980500000000000 16.0859999999999985
 22.1563000000000017  0.8714660000000000 16.1000000000000014
 22.1094000000000008  2.1770600000000000 16.2612999999999985
 23.3837000000000010  0.1275200000000000 16.3199000000000005
 23.3136000000000010  2.8434300000000001 16.6063000000000009
 24.5329000000000015  0.8499390000000000 16.7119000000000000
 24.5016999999999996  2.1817500000000001 16.8302000000000014
 25.7481000000000009  0.1914770000000000 17.2183999999999990
 25.6872000000000007  2.8976600000000001 17.4100000000000001
 26.8721999999999994  0.8148490000000000 17.5936999999999983
 26.8569999999999993  2.2231299999999998 17.6893999999999991
  0.1208290000000000  4.8664600000000000 18.6368000000000009
  0.1156950000000000  6.2761600000000000 18.6334000000000017
  1.3738900000000001  4.2295600000000002 18.6108000000000011
  1.3374699999999999  6.9318400000000002 18.5300000000000011
  2.6115900000000001  4.9621800000000000 18.7264000000000017
  2.6150899999999999  6.3392999999999997 18.5542000000000016
  3.8647000000000000  4.2375800000000003 18.4015999999999984
  3.8204199999999999  6.9774900000000004 18.1036999999999999
  5.1450800000000001  4.9218700000000002 18.2574000000000005
  5.0569300000000004  6.2893499999999998 18.0344000000000015
  6.2736200000000002  4.2653699999999999 17.7277999999999984
  6.2493299999999996  6.9404300000000001 17.5164000000000009
  7.4657000000000000  4.8894599999999997 17.3597999999999999
  7.4496900000000004  6.2226400000000002 17.1880999999999986
  8.7121999999999993  4.2493499999999997 16.9486999999999988
  8.6014999999999997  6.8538500000000004 16.6693999999999996
  9.8888900000000000  4.8469400000000000 16.6022999999999996
  9.8035399999999999  6.2427900000000003 16.3606000000000016
 11.1043000000000003  4.1821500000000000 16.2666000000000004
 11.0140999999999991  6.9374500000000001 16.0087000000000010
 12.3071000000000002  4.9194199999999997 16.0838000000000001
 12.2378000000000000  6.2728799999999998 15.8619000000000003
 13.4936000000000007  4.2400000000000002 15.7994000000000003
 13.4802000000000000  6.9164700000000003 15.5818999999999992
 14.7523000000000000  4.8296700000000001 15.6945999999999994
 14.6982999999999997  6.2324400000000004 15.6341000000000001
 15.9962999999999997  4.2073400000000003 15.5802999999999994
 15.9242000000000008  6.8661899999999996 15.3960000000000008
 17.2256999999999998  4.8813399999999998 15.7135999999999996
 17.2245999999999988  6.2398100000000003 15.6015999999999995
 18.4262000000000015  4.2340200000000001 15.8185000000000002
 18.4253000000000000  6.9266100000000002 15.5722000000000005
 19.6331999999999987  4.9493999999999998 15.9268000000000001
 19.6572999999999993  6.3081100000000001 15.7890999999999995
 20.8675999999999995  4.2440800000000003 16.1937999999999995
 20.9151999999999987  6.9015599999999999 15.9846000000000004
 22.0367999999999995  4.8803900000000002 16.5489999999999995
 22.1152000000000015  6.2194900000000004 16.3348000000000013
 23.2593999999999994  4.1588399999999996 16.9542999999999999
 23.3540999999999990  6.8559599999999996 16.5294999999999987
 24.4539000000000009  4.8622199999999998 17.2677000000000014
 24.4880999999999993  6.2464599999999999 17.1477000000000004
 25.6230000000000011  4.2534000000000001 17.6830999999999996
 25.6297999999999995  6.9354300000000002 17.5821000000000005
 26.7011000000000003  4.9433299999999996 18.1890999999999998
 26.7101000000000006  6.2863100000000003 18.2569000000000017
