 C                                      
    1.000000000000000     
    28.0500000000000007    0.0000000000000000    0.0000000000000000
     0.0000000000000000    8.0999999999999996    0.0000000000000000
     0.0000000000000000    0.0000000000000000   33.5000000000000000
   C 
    92
Direct
     0.0442064171122993    0.6984098765432094    0.7463880597014949
     0.0424135472370750    0.8704000000000036    0.7391343283582046
     0.0878595365418917    0.6208580246913584    0.7445074626865704
     0.0855208556149734    0.9490691358024677    0.7312537313432870
     0.1324549019607844    0.7020925925925923    0.7368656716417945
     0.1303322638146156    0.8689567901234554    0.7283283582089553
     0.1763172905525821    0.6205320987654304    0.7304776119403016
     0.1721137254901990    0.9473209876543223    0.7160298507462670
     0.2192352941176452    0.7019234567901265    0.7174626865671598
     0.2158980392156877    0.8660296296296295    0.7083880597014911
     0.2624085561497296    0.6195024691358029    0.7069552238805983
     0.2587326203208562    0.9512679012345657    0.6948059701492539
     0.3036680926916233    0.7027037037037047    0.6930447761194074
     0.3014253119429569    0.8704209876543203    0.6841492537313485
     0.3482499108734416    0.6217790123456766    0.6861194029850708
     0.3432160427807460    0.9519395061728417    0.6703283582089554
     0.3889340463458097    0.7032160493827178    0.6705970149253773
     0.3872727272727303    0.8660037037037043    0.6601194029850745
     0.4329696969696997    0.6208592592592623    0.6625970149253746
     0.4287950089126582    0.9519098765432119    0.6473731343283617
     0.4751229946524091    0.7017123456790131    0.6494029850746301
     0.4738467023172888    0.8678777777777782    0.6412835820895495
     0.5198003565062379    0.6205654320987648    0.6468955223880641
     0.5175650623885915    0.9525407407407442    0.6326865671641855
     0.5624848484848499    0.7022197530864176    0.6388059701492494
     0.5625276292335144    0.8709061728395042    0.6317910447761221
     0.6061853832442097    0.6199222222222218    0.6433731343283569
     0.6066880570409978    0.9526790123456763    0.6330746268656711
     0.6503921568627433    0.6991098765432113    0.6441791044776153
     0.6507736185383237    0.8691135802469105    0.6391641791044833
     0.6933547237076638    0.6168679012345706    0.6552835820895524
     0.6949055258466998    0.9475209876543218    0.6456417910447811
     0.7369518716577517    0.6976308641975280    0.6632238805970161
     0.7376934046345838    0.8668037037037024    0.6581194029850792
     0.7777754010695190    0.6158641975308612    0.6793134328358192
     0.7791978609625687    0.9492716049382750    0.6730746268656702
     0.8201105169340437    0.6982160493827152    0.6902388059701536
     0.8226773618538346    0.8679469135802478    0.6848656716417878
     0.8619108734402872    0.6176123456790137    0.7057313432835883
     0.8660463458110499    0.9468901234567895    0.6957611940298563
     0.9042032085561473    0.7001765432098779    0.7182089552238793
     0.9063957219251364    0.8652012345678983    0.7105373134328374
     0.9466773618538298    0.6194345679012372    0.7305373134328335
     0.9509019607843143    0.9471716049382692    0.7181194029850744
     0.9895222816399283    0.7026234567901213    0.7392238805970166
     0.9916399286987527    0.8688592592592599    0.7295522388059723
     0.0437771836007101    0.2044209876543235    0.7304179104477626
     0.0439326203208523    0.3726950617283933    0.7382089552238824
     0.0858923351158651    0.1185344444444425    0.7274328358208919
     0.0885269162210349    0.4493827160493851    0.7413432835820899
     0.1304245989304817    0.2006234567901259    0.7249552238805990
     0.1318795008912659    0.3691123456790137    0.7323283582089601
     0.1732684491978631    0.1202938271604950    0.7151641791044767
     0.1758231729055240    0.4474407407407384    0.7299701492537309
     0.2171048128342221    0.2039481481481502    0.7103880597014935
     0.2193201426024984    0.3691913580246933    0.7166865671641816
     0.2590477718360091    0.1212235802469124    0.6962089552238808
     0.2629964349376124    0.4505370370370372    0.7083582089552252
     0.3018613190730832    0.2027086419753061    0.6878805970149244
     0.3055590017825338    0.3664728395061729    0.6972238805970150
     0.3428730837789686    0.1218083950617270    0.6715522388059725
     0.3482042780748671    0.4503740740740767    0.6886268656716368
     0.3871016042780724    0.2055641975308617    0.6631641791044771
     0.3897611408199637    0.3684209876543179    0.6733731343283580
     0.4292263814616746    0.1208793827160477    0.6495223880597010
     0.4324242424242399    0.4532320987654330    0.6652835820895575
     0.4735579322638159    0.2026901234567902    0.6456119402985081
     0.4757825311942980    0.3674135802469110    0.6550149253731377
     0.5165597147950081    0.1186625925925924    0.6360298507462687
     0.5190837789661344    0.4515716049382732    0.6496417910447789
     0.5619750445632832    0.2002679012345681    0.6360298507462687
     0.5631657754010675    0.3713962962962967    0.6424477611940347
     0.6067807486630983    0.1215764197530831    0.6351940298507515
     0.6066310160427832    0.4497543209876511    0.6465970149253764
     0.6513404634581121    0.2023851851851859    0.6416716417910493
     0.6504919786096224    0.3669246913580224    0.6499104477612008
     0.6950445632798576    0.1182838271604965    0.6480298507462692
     0.6926987522281607    0.4482111111111138    0.6605074626865672
     0.7367165775401077    0.2014851851851844    0.6608358208955281
     0.7360213903743329    0.3673814814814804    0.6682089552238821
     0.7796898395721925    0.1178606172839523    0.6717014925373093
     0.7774581105169318    0.4470234567901201    0.6816119402985095
     0.8220499108734387    0.1980333333333348    0.6863283582089537
     0.8213868092691641    0.3686555555555557    0.6907761194029831
     0.8658395721925132    0.1151495061728411    0.6952238805970126
     0.8617967914438509    0.4498172839506154    0.7057611940298472
     0.9077183600712999    0.1964135802469116    0.7094328358208912
     0.9045454545454561    0.3634790123456781    0.7168358208955254
     0.9518467023172903    0.1175791358024725    0.7178208955223937
     0.9471336898395748    0.4515469135802448    0.7280597014925405
     0.9922816399286987    0.2031641975308673    0.7279701492537285
     0.9911978609625649    0.3718777777777760    0.7343880597014874
 
  0.00000000E+00  0.00000000E+00  0.00000000E+00
  0.00000000E+00  0.00000000E+00  0.00000000E+00
  0.00000000E+00  0.00000000E+00  0.00000000E+00
  0.00000000E+00  0.00000000E+00  0.00000000E+00
  0.00000000E+00  0.00000000E+00  0.00000000E+00
  0.00000000E+00  0.00000000E+00  0.00000000E+00
  0.00000000E+00  0.00000000E+00  0.00000000E+00
  0.00000000E+00  0.00000000E+00  0.00000000E+00
  0.00000000E+00  0.00000000E+00  0.00000000E+00
  0.00000000E+00  0.00000000E+00  0.00000000E+00
  0.00000000E+00  0.00000000E+00  0.00000000E+00
  0.00000000E+00  0.00000000E+00  0.00000000E+00
  0.00000000E+00  0.00000000E+00  0.00000000E+00
  0.00000000E+00  0.00000000E+00  0.00000000E+00
  0.00000000E+00  0.00000000E+00  0.00000000E+00
  0.00000000E+00  0.00000000E+00  0.00000000E+00
  0.00000000E+00  0.00000000E+00  0.00000000E+00
  0.00000000E+00  0.00000000E+00  0.00000000E+00
  0.00000000E+00  0.00000000E+00  0.00000000E+00
  0.00000000E+00  0.00000000E+00  0.00000000E+00
  0.00000000E+00  0.00000000E+00  0.00000000E+00
  0.00000000E+00  0.00000000E+00  0.00000000E+00
  0.00000000E+00  0.00000000E+00  0.00000000E+00
  0.00000000E+00  0.00000000E+00  0.00000000E+00
  0.00000000E+00  0.00000000E+00  0.00000000E+00
  0.00000000E+00  0.00000000E+00  0.00000000E+00
  0.00000000E+00  0.00000000E+00  0.00000000E+00
  0.00000000E+00  0.00000000E+00  0.00000000E+00
  0.00000000E+00  0.00000000E+00  0.00000000E+00
  0.00000000E+00  0.00000000E+00  0.00000000E+00
  0.00000000E+00  0.00000000E+00  0.00000000E+00
  0.00000000E+00  0.00000000E+00  0.00000000E+00
  0.00000000E+00  0.00000000E+00  0.00000000E+00
  0.00000000E+00  0.00000000E+00  0.00000000E+00
  0.00000000E+00  0.00000000E+00  0.00000000E+00
  0.00000000E+00  0.00000000E+00  0.00000000E+00
  0.00000000E+00  0.00000000E+00  0.00000000E+00
  0.00000000E+00  0.00000000E+00  0.00000000E+00
  0.00000000E+00  0.00000000E+00  0.00000000E+00
  0.00000000E+00  0.00000000E+00  0.00000000E+00
  0.00000000E+00  0.00000000E+00  0.00000000E+00
  0.00000000E+00  0.00000000E+00  0.00000000E+00
  0.00000000E+00  0.00000000E+00  0.00000000E+00
  0.00000000E+00  0.00000000E+00  0.00000000E+00
  0.00000000E+00  0.00000000E+00  0.00000000E+00
  0.00000000E+00  0.00000000E+00  0.00000000E+00
  0.00000000E+00  0.00000000E+00  0.00000000E+00
  0.00000000E+00  0.00000000E+00  0.00000000E+00
  0.00000000E+00  0.00000000E+00  0.00000000E+00
  0.00000000E+00  0.00000000E+00  0.00000000E+00
  0.00000000E+00  0.00000000E+00  0.00000000E+00
  0.00000000E+00  0.00000000E+00  0.00000000E+00
  0.00000000E+00  0.00000000E+00  0.00000000E+00
  0.00000000E+00  0.00000000E+00  0.00000000E+00
  0.00000000E+00  0.00000000E+00  0.00000000E+00
  0.00000000E+00  0.00000000E+00  0.00000000E+00
  0.00000000E+00  0.00000000E+00  0.00000000E+00
  0.00000000E+00  0.00000000E+00  0.00000000E+00
  0.00000000E+00  0.00000000E+00  0.00000000E+00
  0.00000000E+00  0.00000000E+00  0.00000000E+00
  0.00000000E+00  0.00000000E+00  0.00000000E+00
  0.00000000E+00  0.00000000E+00  0.00000000E+00
  0.00000000E+00  0.00000000E+00  0.00000000E+00
  0.00000000E+00  0.00000000E+00  0.00000000E+00
  0.00000000E+00  0.00000000E+00  0.00000000E+00
  0.00000000E+00  0.00000000E+00  0.00000000E+00
  0.00000000E+00  0.00000000E+00  0.00000000E+00
  0.00000000E+00  0.00000000E+00  0.00000000E+00
  0.00000000E+00  0.00000000E+00  0.00000000E+00
  0.00000000E+00  0.00000000E+00  0.00000000E+00
  0.00000000E+00  0.00000000E+00  0.00000000E+00
  0.00000000E+00  0.00000000E+00  0.00000000E+00
  0.00000000E+00  0.00000000E+00  0.00000000E+00
  0.00000000E+00  0.00000000E+00  0.00000000E+00
  0.00000000E+00  0.00000000E+00  0.00000000E+00
  0.00000000E+00  0.00000000E+00  0.00000000E+00
  0.00000000E+00  0.00000000E+00  0.00000000E+00
  0.00000000E+00  0.00000000E+00  0.00000000E+00
  0.00000000E+00  0.00000000E+00  0.00000000E+00
  0.00000000E+00  0.00000000E+00  0.00000000E+00
  0.00000000E+00  0.00000000E+00  0.00000000E+00
  0.00000000E+00  0.00000000E+00  0.00000000E+00
  0.00000000E+00  0.00000000E+00  0.00000000E+00
  0.00000000E+00  0.00000000E+00  0.00000000E+00
  0.00000000E+00  0.00000000E+00  0.00000000E+00
  0.00000000E+00  0.00000000E+00  0.00000000E+00
  0.00000000E+00  0.00000000E+00  0.00000000E+00
  0.00000000E+00  0.00000000E+00  0.00000000E+00
  0.00000000E+00  0.00000000E+00  0.00000000E+00
  0.00000000E+00  0.00000000E+00  0.00000000E+00
  0.00000000E+00  0.00000000E+00  0.00000000E+00
  0.00000000E+00  0.00000000E+00  0.00000000E+00
