 C 
 1.0000000000000000
    28.0500000000000007    0.0000000000000000    0.0000000000000000
     0.0000000000000000    8.0999999999999996    0.0000000000000000
     0.0000000000000000    0.0000000000000000   33.5000000000000000
 C  
  92
Cartesian
  1.2399899999999999  5.6571199999999999 -912.9959999999999809
  1.1897000000000000  7.0502399999999996 -913.2390000000000327
  2.4644599999999999  5.0289500000000000 -913.0589999999999691
  2.3988600000000000  7.6874599999999997 -913.5030000000000427
  3.7153600000000000  5.6869500000000004 -913.3150000000000546
  3.6558199999999998  7.0385499999999999 -913.6009999999999991
  4.9457000000000004  5.0263099999999996 -913.5289999999999964
  4.8277900000000002  7.6733000000000002 -914.0130000000000337
  6.1495499999999996  5.6855799999999999 -913.9650000000000318
  6.0559399999999997  7.0148400000000004 -914.2690000000000055
  7.3605600000000004  5.0179700000000000 -914.3170000000000073
  7.2574500000000004  7.7052699999999996 -914.7240000000000464
  8.5178899999999995  5.6919000000000004 -914.7830000000000155
  8.4549800000000008  7.0504100000000003 -915.0810000000000173
  9.7684099999999994  5.0364100000000001 -915.0149999999999864
  9.6272099999999998  7.7107099999999997 -915.5439999999999827
 10.9095999999999993  5.6960499999999996 -915.5349999999999682
 10.8629999999999995  7.0146300000000004 -915.8859999999999673
 12.1448000000000000  5.0289599999999997 -915.8029999999999973
 12.0276999999999994  7.7104699999999999 -916.3129999999999882
 13.3271999999999995  5.6838699999999998 -916.2450000000000045
 13.2913999999999994  7.0298100000000003 -916.5170000000000528
 14.5803999999999991  5.0265800000000000 -916.3289999999999509
 14.5176999999999996  7.7155800000000001 -916.8049999999999500
 15.7776999999999994  5.6879799999999996 -916.6000000000000227
 15.7789000000000001  7.0543399999999998 -916.8350000000000364
 17.0034999999999989  5.0213700000000001 -916.4470000000000027
 17.0176000000000016  7.7167000000000003 -916.7920000000000300
 18.2435000000000009  5.6627900000000002 -916.4199999999999591
 18.2542000000000009  7.0398199999999997 -916.5879999999999654
 19.4485999999999990  4.9966299999999997 -916.0480000000000018
 19.4921000000000006  7.6749200000000002 -916.3709999999999809
 20.6715000000000018  5.6508099999999999 -915.7820000000000391
 20.6922999999999995  7.0211100000000002 -915.9529999999999745
 21.8166000000000011  4.9885000000000002 -915.2430000000000518
 21.8565000000000005  7.6890999999999998 -915.4519999999999982
 23.0041000000000011  5.6555499999999999 -914.8769999999999527
 23.0761000000000003  7.0303699999999996 -915.0570000000000164
 24.1766000000000005  5.0026599999999997 -914.3579999999999472
 24.2926000000000002  7.6698100000000000 -914.6920000000000073
 25.3628999999999998  5.6714300000000000 -913.9400000000000546
 25.4243999999999986  7.0081300000000004 -914.1970000000000027
 26.5543000000000013  5.0174200000000004 -913.5270000000000437
 26.6727999999999987  7.6720899999999999 -913.9429999999999836
 27.7561000000000000  5.6912500000000001 -913.2359999999999900
 27.8155000000000001  7.0377599999999996 -913.5599999999999454
  1.2279500000000001  1.6558100000000000 -913.5309999999999491
  1.2323100000000000  3.0188299999999999 -913.2699999999999818
  2.4092799999999999  0.9601290000000000 -913.6309999999999718
  2.4831799999999999  3.6400000000000001 -913.1649999999999636
  3.6584099999999999  1.6250500000000001 -913.7140000000000555
  3.6992200000000000  2.9898099999999999 -913.4669999999999845
  4.8601799999999997  0.9743800000000000 -914.0420000000000300
  4.9318400000000002  3.6242700000000001 -913.5460000000000491
  6.0897899999999998  1.6519800000000000 -914.2019999999999982
  6.1519300000000001  2.9904500000000001 -913.9909999999999854
  7.2662899999999997  0.9819110000000000 -914.6770000000000209
  7.3770499999999997  3.6493500000000001 -914.2699999999999818
  8.4672099999999997  1.6419400000000000 -914.9560000000000173
  8.5709300000000006  2.9684300000000001 -914.6430000000000291
  9.6175899999999999  0.9866480000000000 -915.5030000000000427
  9.7671299999999999  3.6480299999999999 -914.9310000000000400
 10.8582000000000001  1.6650700000000001 -915.7839999999999918
 10.9328000000000003  2.9842100000000000 -915.4420000000000073
 12.0397999999999996  0.9791230000000000 -916.2409999999999854
 12.1295000000000002  3.6711800000000001 -915.7129999999999654
 13.2833000000000006  1.6417900000000001 -916.3719999999999573
 13.3457000000000008  2.9760499999999999 -916.0570000000000164
 14.4894999999999996  0.9611670000000000 -916.6929999999999836
 14.5602999999999998  3.6577299999999999 -916.2369999999999663
 15.7634000000000007  1.6221699999999999 -916.6929999999999836
 15.7967999999999993  3.0083099999999998 -916.4779999999999518
 17.0201999999999991  0.9847690000000000 -916.7210000000000036
 17.0159999999999982  3.6430099999999999 -916.3390000000000555
 18.2700999999999993  1.6393200000000001 -916.5040000000000191
 18.2463000000000015  2.9720900000000001 -916.2279999999999518
 19.4959999999999987  0.9580990000000000 -916.2910000000000537
 19.4301999999999992  3.6305100000000001 -915.8730000000000473
 20.6648999999999994  1.6320300000000001 -915.8619999999999663
 20.6453999999999986  2.9757899999999999 -915.6150000000000091
 21.8703000000000003  0.9546710000000000 -915.4980000000000473
 21.8077000000000005  3.6208900000000002 -915.1660000000000537
 23.0584999999999987  1.6040700000000001 -915.0080000000000382
 23.0398999999999994  2.9861100000000000 -914.8590000000000373
 24.2867999999999995  0.9327110000000000 -914.7100000000000364
 24.1734000000000009  3.6435200000000001 -914.3569999999999709
 25.4615000000000009  1.5909500000000001 -914.2340000000000373
 25.3724999999999987  2.9441799999999998 -913.9859999999999900
 26.6993000000000009  0.9523910000000000 -913.9529999999999745
 26.5670999999999999  3.6575299999999999 -913.6100000000000136
 27.8335000000000008  1.6456299999999999 -913.6130000000000564
 27.8031000000000006  3.0122100000000001 -913.3980000000000246
