 C 
 1.0000000000000000
    28.0500000000000007    0.0000000000000000    0.0000000000000000
     0.0000000000000000    8.0999999999999996    0.0000000000000000
     0.0000000000000000    0.0000000000000000   33.5000000000000000
 C  
  92
Cartesian
  0.2248010000000000  0.8584960000000000 16.7796999999999983
  0.2133990000000000  2.2538800000000001 16.7990999999999993
  1.3369700000000000  0.1838560000000000 16.3032000000000004
  1.3604499999999999  2.8744299999999998 16.3397000000000006
  2.5800900000000002  0.8144250000000000 15.9985999999999997
  2.5760700000000001  2.1704400000000001 15.9354999999999993
  3.7663099999999998  0.1130110000000000 15.4764999999999997
  3.7542000000000000  2.8167300000000002 15.5279000000000007
  5.0091000000000001  0.8230490000000000 15.2271999999999998
  4.9867999999999997  2.1780499999999998 15.2626000000000008
  6.2492200000000002  0.1681670000000000 15.0050000000000008
  6.2233400000000003  2.7997000000000001 15.0176999999999996
  7.4959300000000004  0.8112880000000000 14.8234999999999992
  7.4851599999999996  2.2103899999999999 14.9230000000000000
  8.8347300000000004  0.1229730000000000 15.0196000000000005
  8.7429100000000002  2.8272900000000001 15.0718999999999994
 10.0345999999999993  0.8153340000000000 15.1812000000000005
  9.9722899999999992  2.2024699999999999 15.2119000000000000
 11.1951999999999998  0.1887400000000000 15.5719999999999992
 11.2103999999999999  2.8521600000000000 15.5236000000000001
 12.4225999999999992  0.8280459999999999 15.9366000000000003
 12.3998000000000008  2.2258599999999999 15.8963000000000001
 13.5228000000000002  0.1822560000000000 16.5822000000000003
 13.5128000000000004  2.8564600000000002 16.5992999999999995
 14.7439000000000000  0.8500480000000000 16.9516999999999989
 14.7561000000000000  2.2216200000000002 16.9125000000000014
 15.9629999999999992  0.1707730000000000 17.2701999999999991
 15.9320000000000004  2.8743900000000000 17.4769000000000005
 17.1056999999999988  0.8613920000000000 17.7029999999999994
 17.1631999999999998  2.2121200000000001 17.7003999999999984
 18.3331000000000017  0.2201060000000000 18.0572000000000017
 18.3435999999999986  2.8668100000000001 18.1433000000000000
 19.5539999999999985  0.8334790000000000 18.2406000000000006
 19.5366000000000000  2.2275900000000002 18.3970999999999982
 20.8302000000000014  0.2036180000000000 18.3656000000000006
 20.7578999999999994  2.9499900000000001 18.4402000000000008
 22.1462000000000003  0.8844060000000000 18.4811000000000014
 22.0202999999999989  2.2493500000000002 18.4788999999999994
 23.3447999999999993  0.2184670000000000 18.4084000000000003
 23.2728000000000002  2.9275099999999998 18.2671999999999990
 24.6066000000000003  0.9371210000000000 18.1708999999999996
 24.5672999999999995  2.2819799999999999 18.0257000000000005
 25.7663000000000011  0.2391290000000000 17.8142999999999994
 25.7016999999999989  2.9015300000000002 17.5873999999999988
 26.9097000000000008  0.8438630000000000 17.3493999999999993
 26.9055999999999997  2.2456200000000002 17.2547999999999995
  0.0770035000000000  4.8588800000000001 16.2808999999999990
  0.0792075000000000  6.2256299999999998 16.3594000000000008
  1.2537300000000000  4.1719799999999996 16.0624000000000002
  1.3306300000000000  6.8944200000000002 16.1795000000000009
  2.4791400000000001  4.8571600000000004 15.7202999999999999
  2.4974799999999999  6.2308399999999997 15.7288999999999994
  3.7225700000000002  4.2109500000000004 15.6097999999999999
  3.7278400000000000  6.8404499999999997 15.4750999999999994
  4.9656200000000004  4.8520599999999998 15.2797999999999998
  4.9538300000000000  6.2166499999999996 15.2310999999999996
  6.1922800000000002  4.1742699999999999 15.1651000000000007
  6.2127400000000002  6.8392999999999997 15.0398999999999994
  7.5166100000000000  4.8580899999999998 15.1286000000000005
  7.4804599999999999  6.2308000000000003 15.1707999999999998
  8.7288300000000003  4.2052399999999999 15.1874000000000002
  8.7347800000000007  6.8914600000000004 15.2552000000000003
  9.9135899999999992  4.8389100000000003 15.6123999999999992
  9.9406900000000000  6.2314200000000000 15.6242999999999999
 11.1554000000000002  4.2284300000000004 15.8452999999999999
 11.1295999999999999  6.8879099999999998 15.8614999999999995
 12.3602000000000007  4.8841500000000000 16.2458999999999989
 12.3106000000000009  6.2434300000000000 16.3352000000000004
 13.4680999999999997  4.2347700000000001 16.8083999999999989
 13.4793000000000003  6.9371900000000002 16.7948999999999984
 14.6615000000000002  4.9151400000000001 17.2490999999999985
 14.6967999999999996  6.2494199999999998 17.2144000000000013
 15.8581000000000003  4.2088000000000001 17.6270999999999987
 15.9254999999999995  6.9276700000000000 17.5268000000000015
 17.0778999999999996  4.9262699999999997 17.9637999999999991
 17.1088999999999984  6.2638499999999997 17.9115000000000002
 18.3325999999999993  4.2439099999999996 18.1472000000000016
 18.3087000000000018  6.9241799999999998 18.1578000000000017
 19.5513000000000012  4.9569500000000000 18.2717999999999989
 19.5589000000000013  6.3207100000000001 18.3011000000000017
 20.8011000000000017  4.2958400000000001 18.4883999999999986
 20.8191999999999986  6.9558799999999996 18.4688000000000017
 22.0507999999999988  4.9567300000000003 18.4131999999999998
 22.1152000000000015  6.3113200000000003 18.4599000000000011
 23.2315000000000005  4.2388300000000001 18.1209999999999987
 23.3523999999999994  6.9118899999999996 18.3261000000000003
 24.4700999999999986  4.9020400000000004 17.8184000000000005
 24.5478999999999985  6.2602700000000002 17.9568000000000012
 25.6357999999999997  4.2489900000000000 17.3525999999999989
 25.8091000000000008  6.9333799999999997 17.7703999999999986
 26.7630000000000017  4.9067400000000001 16.8482999999999983
 26.8058000000000014  6.3176500000000004 16.9906000000000006
