 C 
 1.0000000000000000
    28.0500000000000007    0.0000000000000000    0.0000000000000000
     0.0000000000000000    8.0999999999999996    0.0000000000000000
     0.0000000000000000    0.0000000000000000   33.5000000000000000
 C  
  92
Cartesian
  5.0818000000000003  3.9296700000000002 -3538.7399999999997817
  5.1226799999999999  5.2831799999999998 -3539.0100000000002183
  6.2141700000000002  3.2654399999999999 -3538.3400000000001455
  6.3308299999999997  5.9550299999999998 -3538.8699999999998909
  7.4261999999999997  3.9435699999999998 -3538.1100000000001273
  7.5045200000000003  5.2899200000000004 -3538.4000000000000909
  8.5720100000000006  3.2881100000000001 -3537.6300000000001091
  8.7351500000000009  5.9534900000000004 -3538.1599999999998545
  9.7999299999999998  3.9450300000000000 -3537.3600000000001273
  9.8983899999999991  5.2699199999999999 -3537.6700000000000728
 10.9605999999999995  3.2594500000000002 -3536.8699999999998909
 11.0899999999999999  5.9323499999999996 -3537.3600000000001273
 12.1804000000000006  3.9135000000000000 -3536.6100000000001273
 12.2509999999999994  5.2497800000000003 -3536.9099999999998545
 13.3602000000000007  3.2618000000000000 -3536.1599999999998545
 13.4481000000000002  5.9295400000000003 -3536.6399999999998727
 14.6281999999999996  3.9139200000000001 -3535.9800000000000182
 14.6376000000000008  5.2604600000000001 -3536.2699999999999818
 15.8583999999999996  3.2681800000000001 -3535.7300000000000182
 15.8853000000000009  5.9269800000000004 -3536.1700000000000728
 17.1419999999999995  3.9235799999999998 -3535.7699999999999818
 17.1335000000000015  5.2732500000000000 -3536.0199999999999818
 18.3903999999999996  3.2422000000000000 -3535.7699999999999818
 18.3613000000000000  5.9412399999999996 -3536.1900000000000546
 19.6280000000000001  3.9065900000000000 -3536.0100000000002183
 19.5885999999999996  5.2581899999999999 -3536.2500000000000000
 20.8871000000000002  3.2521000000000000 -3536.1399999999998727
 20.7911000000000001  5.9234000000000000 -3536.5700000000001637
 22.1126000000000005  3.9172500000000001 -3536.4899999999997817
 22.0408000000000008  5.2598599999999998 -3536.7600000000002183
 23.3408000000000015  3.2747400000000000 -3536.6999999999998181
 23.2244999999999990  5.9495300000000002 -3537.1799999999998363
 24.5105000000000004  3.9454600000000002 -3537.1500000000000909
 24.4697999999999993  5.2913600000000001 -3537.4200000000000728
 25.7167999999999992  3.2833600000000001 -3537.4600000000000364
 25.6115999999999993  5.9500400000000004 -3537.9200000000000728
 26.9014999999999986  3.9455499999999999 -3537.8800000000001091
 26.8384000000000000  5.2881799999999997 -3538.1599999999998545
  0.0500634000000000  3.2547899999999998 -3538.2100000000000364
 28.0100000000000016  5.9360600000000003 -3538.5999999999999091
  1.2435300000000000  3.9224500000000000 -3538.5399999999999636
  1.1941600000000001  5.2705900000000003 -3538.8000000000001819
  2.4862299999999999  3.2531099999999999 -3538.6100000000001273
  2.4024000000000001  5.9360099999999996 -3539.1500000000000909
  3.6630900000000000  3.9211399999999998 -3538.8600000000001273
  3.6511999999999998  5.2866000000000000 -3539.1500000000000909
  5.1184900000000004  7.9559499999999996 -3539.1199999999998909
  5.0887700000000002  1.2271700000000001 -3538.8600000000001273
  6.3266000000000000  7.3144200000000001 -3538.9000000000000909
  6.2123100000000004  1.8999900000000001 -3538.3800000000001091
  7.4970200000000000  7.9932100000000004 -3538.4099999999998545
  7.4303100000000004  1.2305200000000001 -3538.1399999999998727
  8.7204400000000000  7.3316299999999996 -3538.1100000000001273
  8.5643700000000003  1.8987799999999999 -3537.5999999999999091
  9.8665800000000008  7.9886600000000003 -3537.6300000000001091
  9.7731899999999996  1.2252000000000001 -3537.3000000000001819
 11.0831000000000000  7.3251400000000002 -3537.3400000000001455
 10.9407999999999994  1.8848600000000000 -3536.8200000000001637
 12.2210999999999999  7.9779000000000000 -3536.8299999999999272
 12.1582000000000008  1.2212600000000000 -3536.5300000000002001
 13.4453999999999994  7.3046199999999999 -3536.6199999999998909
 13.3529999999999998  1.8946700000000001 -3536.1300000000001091
 14.6244999999999994  7.9794900000000002 -3536.2800000000002001
 14.6175999999999995  1.2274799999999999 -3536.0000000000000000
 15.8783999999999992  7.3109500000000001 -3536.1999999999998181
 15.8595000000000006  1.8892800000000001 -3535.7800000000002001
 17.1014000000000017  7.9746699999999997 -3536.0700000000001637
 17.1177999999999990  1.2227300000000001 -3535.8299999999999272
 18.3377000000000017  7.3055399999999997 -3536.2300000000000182
 18.3905999999999992  1.8740399999999999 -3535.7899999999999636
 19.5755000000000017  7.9686599999999999 -3536.3299999999999272
 19.6245000000000012  1.2189300000000001 -3536.0500000000001819
 20.7667999999999999  7.3047199999999997 -3536.6399999999998727
 20.8648999999999987  1.8836700000000000 -3536.1799999999998363
 22.0070000000000014  7.9707200000000000 -3536.8699999999998909
 22.0704999999999991  1.2170900000000000 -3536.5999999999999091
 23.2093999999999987  7.3226199999999997 -3537.2699999999999818
 23.3079999999999998  1.8920699999999999 -3536.8099999999999454
 24.4141000000000012  7.9844499999999998 -3537.5700000000001637
 24.4897999999999989  1.2312500000000000 -3537.2699999999999818
 25.5788000000000011  7.3234399999999997 -3538.0300000000002001
 25.6905000000000001  1.9082900000000000 -3537.5700000000001637
 26.7944999999999993  7.9938099999999999 -3538.3499999999999091
 26.8601999999999990  1.2353400000000001 -3538.0500000000001819
 28.0070000000000014  7.3186600000000004 -3538.7199999999997999
  0.0421538000000000  1.8781800000000000 -3538.2399999999997817
  1.1888900000000000  7.9882400000000002 -3538.9299999999998363
  1.2243800000000000  1.2233200000000000 -3538.6399999999998727
  2.4104500000000000  7.3009199999999996 -3539.2100000000000364
  2.4866199999999998  1.8905799999999999 -3538.6900000000000546
  3.6260200000000000  7.9599500000000001 -3539.2399999999997817
  3.6726700000000001  1.2278400000000000 -3538.9899999999997817
