 C                                      
    1.000000000000000     
    28.0500000000000007    0.0000000000000000    0.0000000000000000
     0.0000000000000000    8.0999999999999996    0.0000000000000000
     0.0000000000000000    0.0000000000000000   33.5000000000000000
   C 
    92
Direct
     0.0050012121212148    0.0966297530864182    0.5444358208955222
     0.0069871657753993    0.2603308641975275    0.5372656716417907
     0.0493504456327969    0.0120589382716076    0.5457731343283569
     0.0466570409982197    0.3498753086419768    0.5350029850746267
     0.0943686274509830    0.1012459259259231    0.5419970149253714
     0.0913094474153269    0.2673098765432087    0.5344507462686536
     0.1368581105169326    0.0179483950617296    0.5385552238806000
     0.1351358288770044    0.3474641975308614    0.5274925373134352
     0.1809279857397499    0.0966820987654344    0.5310746268656743
     0.1791130124777212    0.2677543209876561    0.5268059701492547
     0.2262520499108760    0.0180309876543205    0.5275850746268631
     0.2242634581105136    0.3475530864197509    0.5215074626865643
     0.2694527629233505    0.0985132098765433    0.5209432835820920
     0.2694741532976792    0.2671617283950596    0.5189492537313427
     0.3137910873440291    0.0130317283950632    0.5121820895522404
     0.3101379679144358    0.3505617283950642    0.5034805970149279
     0.3569019607843131    0.0991819753086389    0.5004328358208951
     0.3548816399286991    0.2659543209876531    0.4951910447761207
     0.4001925133689852    0.0223782716049357    0.4911552238805967
     0.3937932263814616    0.3514148148148166    0.4777462686567162
     0.4426631016042748    0.1062648148148142    0.4803671641791070
     0.4386987522281629    0.2737753086419730    0.4732179104477581
     0.4844563279857397    0.0194886419753075    0.4740835820895555
     0.4799215686274536    0.3583641975308609    0.4611164179104463
     0.5261069518716610    0.1123481481481505    0.4669880597014924
     0.5240962566844942    0.2762629629629600    0.4588477611940291
     0.5688520499108733    0.0243251851851838    0.4616119402985106
     0.5692513368983967    0.3605197530864217    0.4540358208955197
     0.6116078431372571    0.1151827160493823    0.4613970149253745
     0.6130053475935853    0.2814901234567913    0.4563194029850735
     0.6573475935828910    0.0349682716049386    0.4658238805970143
     0.6593939393939365    0.3567716049382739    0.4545014925373110
     0.6988057040998186    0.1152512345679000    0.4746686567164176
     0.7020606060606056    0.2785419753086416    0.4650776119403019
     0.7424812834224568    0.0296390123456760    0.4864656716417883
     0.7460427807486667    0.3571938271604935    0.4743343283582107
     0.7857504456328002    0.1085128395061759    0.4969880597014935
     0.7889055258467010    0.2782271604938273    0.4865850746268663
     0.8270089126559697    0.0264218518518504    0.5134955223880624
     0.8313083778966117    0.3606135802469126    0.4958268656716385
     0.8682959001782535    0.1118806172839513    0.5247014925373108
     0.8717290552584700    0.2755160493827162    0.5127104477611937
     0.9083315508021386    0.0214754320987680    0.5370149253731356
     0.9151515151515142    0.3594234567901253    0.5168447761194059
     0.9509661319073075    0.1076606172839476    0.5393164179104488
     0.9557789661319092    0.2687790123456821    0.5301850746268642
     0.0023382032085593    0.5933666666666682    0.5407999999999973
     0.0037971479500882    0.7677617283950653    0.5479611940298525
     0.0450695187165806    0.5140654320987679    0.5340865671641808
     0.0484260249554396    0.8475839506172846    0.5490238805970122
     0.0907508021390342    0.5991197530864198    0.5363164179104487
     0.0918167557932250    0.7635839506172815    0.5446955223880607
     0.1341579322638111    0.5163777777777767    0.5284805970149264
     0.1368830659536542    0.8474913580246906    0.5375761194029849
     0.1778467023172894    0.6014222222222259    0.5234985074626834
     0.1793087344028521    0.7655049382716044    0.5296238805970148
     0.2226566844919802    0.5132617283950651    0.5132686567164200
     0.2249458110516969    0.8507259259259285    0.5238388059701506
     0.2657975044563301    0.5990753086419787    0.5071761194029847
     0.2661515151515133    0.7687259259259278    0.5145731343283586
     0.3089222816399300    0.5159888888888915    0.4952686567164193
     0.3127048128342267    0.8523012345679035    0.5070059701492511
     0.3499401069518697    0.6037629629629606    0.4818537313432856
     0.3525197860962592    0.7717950617283975    0.4915402985074593
     0.3922174688057041    0.5208654320987662    0.4714955223880608
     0.3962531194295877    0.8528012345678988    0.4874805970149225
     0.4355900178253123    0.6041913580246927    0.4637940298507459
     0.4376221033868077    0.7709938271604955    0.4758358208955258
     0.4801711229946548    0.5243086419753098    0.4549074626865703
     0.4813511586452748    0.8510691358024687    0.4695582089552204
     0.5230802139037465    0.6077172839506204    0.4531582089552231
     0.5247486631016045    0.7743740740740748    0.4596208955223915
     0.5672620320855586    0.5302000000000007    0.4508835820895527
     0.5701996434937584    0.8553901234567931    0.4614716417910429
     0.6157397504456341    0.6094432098765452    0.4517611940298494
     0.6137860962566819    0.7749777777777780    0.4563134328358203
     0.6592905525846717    0.5265901234567920    0.4560298507462690
     0.6580106951871656    0.8636308641975319    0.4617880597014903
     0.7032513368983970    0.6076716049382682    0.4651044776119377
     0.7016720142602466    0.7781913580246922    0.4693223880597017
     0.7458859180035660    0.5242802469135768    0.4739164179104449
     0.7411907308377863    0.8628037037037046    0.4857970149253745
     0.7882673796791408    0.6144938271604943    0.4866985074626839
     0.7847308377896596    0.7763728395061733    0.4965343283582087
     0.8306702317290586    0.5322728395061702    0.4957492537313399
     0.8248342245989306    0.8602333333333334    0.5140955223880610
     0.8708698752228159    0.6112098765432066    0.5136477611940293
     0.8671016042780764    0.7770049382716024    0.5238537313432801
     0.9124420677361869    0.5240382716049368    0.5214985074626881
     0.9088698752228197    0.8548160493827197    0.5373134328358233
     0.9527201426024945    0.5954271604938270    0.5369134328358243
     0.9529483065953670    0.7737246913580265    0.5443074626865680
 
  0.00000000E+00  0.00000000E+00  0.00000000E+00
  0.00000000E+00  0.00000000E+00  0.00000000E+00
  0.00000000E+00  0.00000000E+00  0.00000000E+00
  0.00000000E+00  0.00000000E+00  0.00000000E+00
  0.00000000E+00  0.00000000E+00  0.00000000E+00
  0.00000000E+00  0.00000000E+00  0.00000000E+00
  0.00000000E+00  0.00000000E+00  0.00000000E+00
  0.00000000E+00  0.00000000E+00  0.00000000E+00
  0.00000000E+00  0.00000000E+00  0.00000000E+00
  0.00000000E+00  0.00000000E+00  0.00000000E+00
  0.00000000E+00  0.00000000E+00  0.00000000E+00
  0.00000000E+00  0.00000000E+00  0.00000000E+00
  0.00000000E+00  0.00000000E+00  0.00000000E+00
  0.00000000E+00  0.00000000E+00  0.00000000E+00
  0.00000000E+00  0.00000000E+00  0.00000000E+00
  0.00000000E+00  0.00000000E+00  0.00000000E+00
  0.00000000E+00  0.00000000E+00  0.00000000E+00
  0.00000000E+00  0.00000000E+00  0.00000000E+00
  0.00000000E+00  0.00000000E+00  0.00000000E+00
  0.00000000E+00  0.00000000E+00  0.00000000E+00
  0.00000000E+00  0.00000000E+00  0.00000000E+00
  0.00000000E+00  0.00000000E+00  0.00000000E+00
  0.00000000E+00  0.00000000E+00  0.00000000E+00
  0.00000000E+00  0.00000000E+00  0.00000000E+00
  0.00000000E+00  0.00000000E+00  0.00000000E+00
  0.00000000E+00  0.00000000E+00  0.00000000E+00
  0.00000000E+00  0.00000000E+00  0.00000000E+00
  0.00000000E+00  0.00000000E+00  0.00000000E+00
  0.00000000E+00  0.00000000E+00  0.00000000E+00
  0.00000000E+00  0.00000000E+00  0.00000000E+00
  0.00000000E+00  0.00000000E+00  0.00000000E+00
  0.00000000E+00  0.00000000E+00  0.00000000E+00
  0.00000000E+00  0.00000000E+00  0.00000000E+00
  0.00000000E+00  0.00000000E+00  0.00000000E+00
  0.00000000E+00  0.00000000E+00  0.00000000E+00
  0.00000000E+00  0.00000000E+00  0.00000000E+00
  0.00000000E+00  0.00000000E+00  0.00000000E+00
  0.00000000E+00  0.00000000E+00  0.00000000E+00
  0.00000000E+00  0.00000000E+00  0.00000000E+00
  0.00000000E+00  0.00000000E+00  0.00000000E+00
  0.00000000E+00  0.00000000E+00  0.00000000E+00
  0.00000000E+00  0.00000000E+00  0.00000000E+00
  0.00000000E+00  0.00000000E+00  0.00000000E+00
  0.00000000E+00  0.00000000E+00  0.00000000E+00
  0.00000000E+00  0.00000000E+00  0.00000000E+00
  0.00000000E+00  0.00000000E+00  0.00000000E+00
  0.00000000E+00  0.00000000E+00  0.00000000E+00
  0.00000000E+00  0.00000000E+00  0.00000000E+00
  0.00000000E+00  0.00000000E+00  0.00000000E+00
  0.00000000E+00  0.00000000E+00  0.00000000E+00
  0.00000000E+00  0.00000000E+00  0.00000000E+00
  0.00000000E+00  0.00000000E+00  0.00000000E+00
  0.00000000E+00  0.00000000E+00  0.00000000E+00
  0.00000000E+00  0.00000000E+00  0.00000000E+00
  0.00000000E+00  0.00000000E+00  0.00000000E+00
  0.00000000E+00  0.00000000E+00  0.00000000E+00
  0.00000000E+00  0.00000000E+00  0.00000000E+00
  0.00000000E+00  0.00000000E+00  0.00000000E+00
  0.00000000E+00  0.00000000E+00  0.00000000E+00
  0.00000000E+00  0.00000000E+00  0.00000000E+00
  0.00000000E+00  0.00000000E+00  0.00000000E+00
  0.00000000E+00  0.00000000E+00  0.00000000E+00
  0.00000000E+00  0.00000000E+00  0.00000000E+00
  0.00000000E+00  0.00000000E+00  0.00000000E+00
  0.00000000E+00  0.00000000E+00  0.00000000E+00
  0.00000000E+00  0.00000000E+00  0.00000000E+00
  0.00000000E+00  0.00000000E+00  0.00000000E+00
  0.00000000E+00  0.00000000E+00  0.00000000E+00
  0.00000000E+00  0.00000000E+00  0.00000000E+00
  0.00000000E+00  0.00000000E+00  0.00000000E+00
  0.00000000E+00  0.00000000E+00  0.00000000E+00
  0.00000000E+00  0.00000000E+00  0.00000000E+00
  0.00000000E+00  0.00000000E+00  0.00000000E+00
  0.00000000E+00  0.00000000E+00  0.00000000E+00
  0.00000000E+00  0.00000000E+00  0.00000000E+00
  0.00000000E+00  0.00000000E+00  0.00000000E+00
  0.00000000E+00  0.00000000E+00  0.00000000E+00
  0.00000000E+00  0.00000000E+00  0.00000000E+00
  0.00000000E+00  0.00000000E+00  0.00000000E+00
  0.00000000E+00  0.00000000E+00  0.00000000E+00
  0.00000000E+00  0.00000000E+00  0.00000000E+00
  0.00000000E+00  0.00000000E+00  0.00000000E+00
  0.00000000E+00  0.00000000E+00  0.00000000E+00
  0.00000000E+00  0.00000000E+00  0.00000000E+00
  0.00000000E+00  0.00000000E+00  0.00000000E+00
  0.00000000E+00  0.00000000E+00  0.00000000E+00
  0.00000000E+00  0.00000000E+00  0.00000000E+00
  0.00000000E+00  0.00000000E+00  0.00000000E+00
  0.00000000E+00  0.00000000E+00  0.00000000E+00
  0.00000000E+00  0.00000000E+00  0.00000000E+00
  0.00000000E+00  0.00000000E+00  0.00000000E+00
  0.00000000E+00  0.00000000E+00  0.00000000E+00
