 C                                      
    1.000000000000000     
    28.0500000000000007    0.0000000000000000    0.0000000000000000
     0.0000000000000000    8.0999999999999996    0.0000000000000000
     0.0000000000000000    0.0000000000000000   33.5000000000000000
   C 
    92
Direct
     0.0619112299465243    0.3373333333333335    0.6301492537313464
     0.0624873440285185    0.5079901234567927    0.6253731343283562
     0.1043878787878754    0.2585320987654356    0.6375223880597005
     0.1041750445632772    0.5951024691358029    0.6282089552238830
     0.1479333333333344    0.3432740740740741    0.6305373134328391
     0.1477721925133721    0.5115641975308662    0.6256716417910440
     0.1913297682709469    0.2589481481481499    0.6271343283582098
     0.1908966131907306    0.5969308641975317    0.6191343283582071
     0.2336317290552614    0.3377975308642007    0.6130746268656679
     0.2321761140819945    0.5074617283950644    0.6097910447761166
     0.2772381461675550    0.2585506172839516    0.6060895522388066
     0.2757939393939424    0.5896407407407409    0.5996716417910477
     0.3193946524064160    0.3391839506172829    0.5931940298507499
     0.3177087344028493    0.5051839506172868    0.5887761194029864
     0.3625739750445618    0.2553259259259235    0.5855820895522328
     0.3606559714795026    0.5927000000000007    0.5786268656716373
     0.4033725490196076    0.3380074074074102    0.5706268656716418
     0.4027165775401045    0.5091543209876548    0.5691343283582100
     0.4488163992869900    0.2547370370370388    0.5634029850746316
     0.4469126559714809    0.5889888888888919    0.5623582089552244
     0.4920748663101620    0.3371283950617254    0.5524776119403043
     0.4914224598930446    0.5097753086419772    0.5535522388059704
     0.5363992869875247    0.2535246913580238    0.5482686567164166
     0.5358787878787865    0.5837419753086408    0.5506268656716458
     0.5807486631016019    0.3352740740740714    0.5427164179104480
     0.5807486631016019    0.5081197530864188    0.5448955223880603
     0.6253975044563305    0.2542962962962960    0.5468358208955237
     0.6253868092691590    0.5876555555555569    0.5459104477611945
     0.6711550802139072    0.3394938271604957    0.5468358208955237
     0.6710053475935851    0.5102197530864174    0.5460000000000065
     0.7139821746880557    0.2592666666666688    0.5586865671641803
     0.7156007130124777    0.5893283950617274    0.5519701492537337
     0.7579251336898380    0.3368271604938258    0.5619701492537317
     0.7587771836007136    0.5068765432098772    0.5586865671641803
     0.7998859180035680    0.2574679012345698    0.5758805970149297
     0.8018431372548989    0.5910481481481469    0.5689552238805931
     0.8435508021390348    0.3378753086419763    0.5849552238805984
     0.8451122994652422    0.5053876543209910    0.5770149253731347
     0.8835935828876984    0.2586740740740723    0.6031044776119359
     0.8865739750445627    0.5860320987654291    0.5925373134328353
     0.9268734402852061    0.3404641975308635    0.6113731343283604
     0.9295614973262047    0.5059518518518544    0.6026865671641843
     0.9674688057041010    0.2542839506172854    0.6252835820895513
     0.9708270944741528    0.5892592592592578    0.6120895522388068
     0.0107992869875204    0.3339641975308609    0.6259402985074658
     0.0119872014260238    0.5041098765432110    0.6196716417910437
     0.0617654188948293    0.8356864197530882    0.6426268656716445
     0.0614691622103365    0.0082975308641977    0.6467761194029862
     0.1050338680926899    0.7595320987654333    0.6371343283582149
     0.1049172905525850    0.0903092592592571    0.6444776119403031
     0.1503019607843115    0.8404222222222231    0.6378507462686542
     0.1497515151515145    0.0099335555555555    0.6430746268656691
     0.1931147950089098    0.7605024691358011    0.6269850746268659
     0.1926402852049875    0.0935553086419745    0.6343880597014930
     0.2378866310160461    0.8404432098765469    0.6224477611940245
     0.2380174688057011    0.0086058765432071    0.6287462686567125
     0.2786520499108747    0.7527382716049402    0.6100895522388043
     0.2804755793226406    0.0949824691358003    0.6160597014925386
     0.3221622103386821    0.8366160493827195    0.6037313432835845
     0.3228335115864525    0.0101604691358048    0.6057014925373139
     0.3632869875222795    0.7571876543209868    0.5887462686567204
     0.3655436720142617    0.0890143209876513    0.5936119402985085
     0.4059607843137272    0.8391037037037066    0.5818507462686568
     0.4077219251336928    0.0076143086419762    0.5843283582089569
     0.4484563279857383    0.7560864197530890    0.5677313432835831
     0.4492513368983992    0.0907365432098786    0.5704776119402979
     0.4922388591800342    0.8374740740740734    0.5652238805970171
     0.4926452762923361    0.0067851481481469    0.5652835820895490
     0.5361925133689809    0.7561308641975302    0.5588656716417901
     0.5362959001782528    0.0863306172839486    0.5571940298507485
     0.5802780748663068    0.8360345679012369    0.5595223880597047
     0.5803172905525855    0.0045259382716054    0.5612835820895512
     0.6242245989304820    0.7546407407407401    0.5555820895522388
     0.6240071301247738    0.0912012345679045    0.5578805970149290
     0.6682816399287006    0.8398074074074060    0.5607462686567146
     0.6681604278074857    0.0072983580246913    0.5640000000000001
     0.7130160427807510    0.7568197530864182    0.5607462686567146
     0.7114474153297650    0.0931855555555572    0.5678507462686611
     0.7540392156862765    0.8389567901234543    0.5736716417910444
     0.7540713012477696    0.0076073333333326    0.5763880597014932
     0.7972727272727269    0.7542432098765417    0.5799701492537324
     0.7977468805704078    0.0899495061728430    0.5844179104477618
     0.8395579322638156    0.8311753086419742    0.5941791044776110
     0.8388377896613193    0.0038873703703715    0.5969552238805989
     0.8839322638146143    0.7518987654321023    0.6000597014925404
     0.8809768270944716    0.0888501234567869    0.6092835820895459
     0.9264527629233541    0.8375037037037032    0.6163880597014924
     0.9233333333333320    0.0034710987654307    0.6225671641791024
     0.9701604278074853    0.7555308641975316    0.6208059701492559
     0.9667736185383262    0.0878343209876533    0.6320597014925369
     0.0103687700534749    0.8343308641975327    0.6351641791044784
     0.0081284491978622    0.0028543950617319    0.6396716417910397
 
  0.00000000E+00  0.00000000E+00  0.00000000E+00
  0.00000000E+00  0.00000000E+00  0.00000000E+00
  0.00000000E+00  0.00000000E+00  0.00000000E+00
  0.00000000E+00  0.00000000E+00  0.00000000E+00
  0.00000000E+00  0.00000000E+00  0.00000000E+00
  0.00000000E+00  0.00000000E+00  0.00000000E+00
  0.00000000E+00  0.00000000E+00  0.00000000E+00
  0.00000000E+00  0.00000000E+00  0.00000000E+00
  0.00000000E+00  0.00000000E+00  0.00000000E+00
  0.00000000E+00  0.00000000E+00  0.00000000E+00
  0.00000000E+00  0.00000000E+00  0.00000000E+00
  0.00000000E+00  0.00000000E+00  0.00000000E+00
  0.00000000E+00  0.00000000E+00  0.00000000E+00
  0.00000000E+00  0.00000000E+00  0.00000000E+00
  0.00000000E+00  0.00000000E+00  0.00000000E+00
  0.00000000E+00  0.00000000E+00  0.00000000E+00
  0.00000000E+00  0.00000000E+00  0.00000000E+00
  0.00000000E+00  0.00000000E+00  0.00000000E+00
  0.00000000E+00  0.00000000E+00  0.00000000E+00
  0.00000000E+00  0.00000000E+00  0.00000000E+00
  0.00000000E+00  0.00000000E+00  0.00000000E+00
  0.00000000E+00  0.00000000E+00  0.00000000E+00
  0.00000000E+00  0.00000000E+00  0.00000000E+00
  0.00000000E+00  0.00000000E+00  0.00000000E+00
  0.00000000E+00  0.00000000E+00  0.00000000E+00
  0.00000000E+00  0.00000000E+00  0.00000000E+00
  0.00000000E+00  0.00000000E+00  0.00000000E+00
  0.00000000E+00  0.00000000E+00  0.00000000E+00
  0.00000000E+00  0.00000000E+00  0.00000000E+00
  0.00000000E+00  0.00000000E+00  0.00000000E+00
  0.00000000E+00  0.00000000E+00  0.00000000E+00
  0.00000000E+00  0.00000000E+00  0.00000000E+00
  0.00000000E+00  0.00000000E+00  0.00000000E+00
  0.00000000E+00  0.00000000E+00  0.00000000E+00
  0.00000000E+00  0.00000000E+00  0.00000000E+00
  0.00000000E+00  0.00000000E+00  0.00000000E+00
  0.00000000E+00  0.00000000E+00  0.00000000E+00
  0.00000000E+00  0.00000000E+00  0.00000000E+00
  0.00000000E+00  0.00000000E+00  0.00000000E+00
  0.00000000E+00  0.00000000E+00  0.00000000E+00
  0.00000000E+00  0.00000000E+00  0.00000000E+00
  0.00000000E+00  0.00000000E+00  0.00000000E+00
  0.00000000E+00  0.00000000E+00  0.00000000E+00
  0.00000000E+00  0.00000000E+00  0.00000000E+00
  0.00000000E+00  0.00000000E+00  0.00000000E+00
  0.00000000E+00  0.00000000E+00  0.00000000E+00
  0.00000000E+00  0.00000000E+00  0.00000000E+00
  0.00000000E+00  0.00000000E+00  0.00000000E+00
  0.00000000E+00  0.00000000E+00  0.00000000E+00
  0.00000000E+00  0.00000000E+00  0.00000000E+00
  0.00000000E+00  0.00000000E+00  0.00000000E+00
  0.00000000E+00  0.00000000E+00  0.00000000E+00
  0.00000000E+00  0.00000000E+00  0.00000000E+00
  0.00000000E+00  0.00000000E+00  0.00000000E+00
  0.00000000E+00  0.00000000E+00  0.00000000E+00
  0.00000000E+00  0.00000000E+00  0.00000000E+00
  0.00000000E+00  0.00000000E+00  0.00000000E+00
  0.00000000E+00  0.00000000E+00  0.00000000E+00
  0.00000000E+00  0.00000000E+00  0.00000000E+00
  0.00000000E+00  0.00000000E+00  0.00000000E+00
  0.00000000E+00  0.00000000E+00  0.00000000E+00
  0.00000000E+00  0.00000000E+00  0.00000000E+00
  0.00000000E+00  0.00000000E+00  0.00000000E+00
  0.00000000E+00  0.00000000E+00  0.00000000E+00
  0.00000000E+00  0.00000000E+00  0.00000000E+00
  0.00000000E+00  0.00000000E+00  0.00000000E+00
  0.00000000E+00  0.00000000E+00  0.00000000E+00
  0.00000000E+00  0.00000000E+00  0.00000000E+00
  0.00000000E+00  0.00000000E+00  0.00000000E+00
  0.00000000E+00  0.00000000E+00  0.00000000E+00
  0.00000000E+00  0.00000000E+00  0.00000000E+00
  0.00000000E+00  0.00000000E+00  0.00000000E+00
  0.00000000E+00  0.00000000E+00  0.00000000E+00
  0.00000000E+00  0.00000000E+00  0.00000000E+00
  0.00000000E+00  0.00000000E+00  0.00000000E+00
  0.00000000E+00  0.00000000E+00  0.00000000E+00
  0.00000000E+00  0.00000000E+00  0.00000000E+00
  0.00000000E+00  0.00000000E+00  0.00000000E+00
  0.00000000E+00  0.00000000E+00  0.00000000E+00
  0.00000000E+00  0.00000000E+00  0.00000000E+00
  0.00000000E+00  0.00000000E+00  0.00000000E+00
  0.00000000E+00  0.00000000E+00  0.00000000E+00
  0.00000000E+00  0.00000000E+00  0.00000000E+00
  0.00000000E+00  0.00000000E+00  0.00000000E+00
  0.00000000E+00  0.00000000E+00  0.00000000E+00
  0.00000000E+00  0.00000000E+00  0.00000000E+00
  0.00000000E+00  0.00000000E+00  0.00000000E+00
  0.00000000E+00  0.00000000E+00  0.00000000E+00
  0.00000000E+00  0.00000000E+00  0.00000000E+00
  0.00000000E+00  0.00000000E+00  0.00000000E+00
  0.00000000E+00  0.00000000E+00  0.00000000E+00
  0.00000000E+00  0.00000000E+00  0.00000000E+00
