 C 
 1.0000000000000000
    28.0500000000000007    0.0000000000000000    0.0000000000000000
     0.0000000000000000    8.0999999999999996    0.0000000000000000
     0.0000000000000000    0.0000000000000000   33.5000000000000000
 C  
  92
Cartesian
  1.7366100000000000  2.7324000000000002 -682.3899999999999864
  1.7527699999999999  4.1147200000000002 -682.5499999999999545
  2.9280800000000000  2.0941100000000001 -682.1430000000000291
  2.9221100000000000  4.8203300000000002 -682.4550000000000409
  4.1495300000000004  2.7805200000000001 -682.3769999999999527
  4.1450100000000001  4.1436700000000002 -682.5399999999999636
  5.3667999999999996  2.0974800000000000 -682.4909999999999854
  5.3546500000000004  4.8351400000000000 -682.7590000000000146
  6.5533700000000001  2.7361599999999999 -682.9619999999999891
  6.5125400000000004  4.1104399999999996 -683.0720000000000027
  7.7765300000000002  2.0942599999999998 -683.1960000000000264
  7.7360199999999999  4.7760899999999999 -683.4109999999999445
  8.9590200000000006  2.7473900000000002 -683.6280000000000427
  8.9117300000000004  4.0919900000000000 -683.7759999999999536
 10.1701999999999995  2.0681400000000001 -683.8830000000000382
 10.1164000000000005  4.8008699999999997 -684.1159999999999854
 11.3146000000000004  2.7378600000000000 -684.3840000000000146
 11.2962000000000007  4.1241500000000002 -684.4339999999999691
 12.5892999999999997  2.0633699999999999 -684.6259999999999764
 12.5358999999999998  4.7708100000000000 -684.6609999999999445
 13.8026999999999997  2.7307399999999999 -684.9919999999999618
 13.7843999999999998  4.1291799999999999 -684.9560000000000173
 15.0459999999999994  2.0535500000000000 -685.1330000000000382
 15.0313999999999997  4.7283099999999996 -685.0539999999999736
 16.2899999999999991  2.7157200000000001 -685.3189999999999600
 16.2899999999999991  4.1157700000000004 -685.2459999999999809
 17.5424000000000007  2.0598000000000001 -685.1810000000000400
 17.5421000000000014  4.7600100000000003 -685.2119999999999891
 18.8259000000000007  2.7498999999999998 -685.1810000000000400
 18.8216999999999999  4.1327800000000003 -685.2089999999999463
 20.0272000000000006  2.1000600000000000 -684.7839999999999918
 20.0726000000000013  4.7735599999999998 -685.0090000000000146
 21.2597999999999985  2.7282999999999999 -684.6739999999999782
 21.2836999999999996  4.1056999999999997 -684.7839999999999918
 22.4368000000000016  2.0854900000000001 -684.2079999999999700
 22.4917000000000016  4.7874900000000000 -684.4400000000000546
 23.6616000000000000  2.7367900000000001 -683.9039999999999964
 23.7054000000000009  4.0936399999999997 -684.1699999999999591
 24.7848000000000006  2.0952600000000001 -683.2960000000000491
 24.8684000000000012  4.7468599999999999 -683.6499999999999773
 25.9987999999999992  2.7577600000000002 -683.0190000000000055
 26.0742000000000012  4.0982099999999999 -683.3099999999999454
 27.1374999999999993  2.0596999999999999 -682.5529999999999973
 27.2317000000000000  4.7729999999999997 -682.9950000000000045
  0.3029200000000000  2.7051099999999999 -682.5309999999999491
  0.3362410000000000  4.0832899999999999 -682.7409999999999854
  1.7325200000000001  6.7690599999999996 -681.9719999999999800
  1.7242100000000000  0.0672100000000000 -681.8329999999999700
  2.9462000000000002  6.1522100000000002 -682.1559999999999491
  2.9429300000000000  0.7315050000000000 -681.9099999999999682
  4.2159700000000004  6.8074199999999996 -682.1319999999999482
  4.2005299999999997  0.0804618000000000 -681.9569999999999936
  5.4168700000000003  6.1600700000000002 -682.4959999999999809
  5.4035599999999997  0.7577980000000000 -682.2480000000000473
  6.6727200000000000  6.8075900000000003 -682.6480000000000246
  6.6763899999999996  0.0697076000000000 -682.4370000000000118
  7.8161899999999997  6.0971799999999998 -683.0620000000000118
  7.8673400000000004  0.7693580000000000 -682.8619999999999663
  9.0366499999999998  6.7765899999999997 -683.2749999999999773
  9.0554799999999993  0.0822998000000000 -683.2089999999999463
 10.1902000000000008  6.1332199999999997 -683.7770000000000437
 10.2535000000000007  0.7210160000000000 -683.6140000000000327
 11.3872000000000000  6.7967399999999998 -684.0080000000000382
 11.4366000000000003  0.0616759000000000 -683.9249999999999545
 12.5792000000000002  6.1242999999999999 -684.4809999999999945
 12.6014999999999997  0.7349660000000000 -684.3890000000000100
 13.8072999999999997  6.7835400000000003 -684.5650000000000546
 13.8186999999999998  0.0549597000000000 -684.5629999999999882
 15.0402000000000005  6.1246600000000004 -684.7780000000000200
 15.0431000000000008  0.6992780000000000 -684.8339999999999463
 16.2768000000000015  6.7718800000000003 -684.7559999999999718
 16.2778999999999989  0.0366601000000000 -684.6970000000000027
 17.5094999999999992  6.1125900000000000 -684.8880000000000337
 17.5033999999999992  0.7387300000000000 -684.8110000000000355
 18.7453000000000003  6.8024399999999998 -684.7150000000000318
 18.7419000000000011  0.0591167000000000 -684.6059999999999945
 20.0000999999999998  6.1302399999999997 -684.7150000000000318
 19.9560999999999993  0.7548030000000000 -684.4769999999999754
 21.1508000000000003  6.7955500000000004 -684.2820000000000391
 21.1517000000000017  0.0616194000000000 -684.1910000000000309
 22.3634999999999984  6.1093700000000002 -684.0710000000000264
 22.3767999999999994  0.7285910000000000 -683.9220000000000255
 23.5496000000000016  6.7325200000000001 -683.5950000000000273
 23.5293999999999990  0.0314877000000000 -683.5019999999999527
 24.7942999999999998  6.0903799999999997 -683.3980000000000246
 24.7114000000000011  0.7196860000000000 -683.0890000000000555
 25.9869999999999983  6.7837800000000001 -682.8509999999999991
 25.8994999999999997  0.0281159000000000 -682.6440000000000055
 27.2130000000000010  6.1197999999999997 -682.7029999999999745
 27.1179999999999986  0.7114580000000000 -682.3260000000000218
  0.2908440000000000  6.7580799999999996 -682.2219999999999800
  0.2280030000000000  0.0231206000000000 -682.0710000000000264
