 C 
 1.0000000000000000
    28.0500000000000007    0.0000000000000000    0.0000000000000000
     0.0000000000000000    8.0999999999999996    0.0000000000000000
     0.0000000000000000    0.0000000000000000   33.5000000000000000
 C  
  92
Cartesian
  0.2536830000000000  0.7920270000000000 18.6195999999999984
  0.2960180000000000  2.1916199999999999 18.6402999999999999
  1.4752200000000000  0.1589490000000000 18.3907999999999987
  1.4966200000000001  2.8353700000000002 18.4967000000000006
  2.7476600000000002  0.8509650000000000 18.2058000000000000
  2.7328600000000001  2.1943299999999999 18.2800000000000011
  3.9187599999999998  0.1744830000000000 17.7716999999999992
  3.9484499999999998  2.8612700000000002 17.9247000000000014
  5.0850299999999997  0.8540640000000000 17.4084000000000003
  5.1252599999999999  2.2053500000000001 17.5522999999999989
  6.2782700000000000  0.1992310000000000 16.9364999999999988
  6.3751800000000003  2.9186100000000001 17.1267999999999994
  7.4077000000000002  0.8813680000000000 16.4575999999999993
  7.4549799999999999  2.2598099999999999 16.4957999999999991
  8.5840300000000003  0.2063260000000000 16.0019999999999989
  8.6328700000000005  2.8961399999999999 16.0691999999999986
  9.7496200000000002  0.8674580000000000 15.5970999999999993
  9.7910199999999996  2.2642300000000000 15.6478999999999999
 10.9865999999999993  0.1834480000000000 15.4245999999999999
 11.0237999999999996  2.8774099999999998 15.3420000000000005
 12.2562999999999995  0.8032480000000000 15.2987000000000002
 12.2658000000000005  2.2059000000000002 15.2644000000000002
 13.4696999999999996  0.1623940000000000 15.4260999999999999
 13.4802999999999997  2.8318800000000000 15.1720000000000006
 14.7720000000000002  0.8511490000000000 15.3983000000000008
 14.7841000000000005  2.2027299999999999 15.2810000000000006
 16.0140999999999991  0.1705150000000000 15.4360999999999997
 16.0488999999999997  2.8561100000000001 15.1624999999999996
 17.1697999999999986  0.8409380000000000 15.8087000000000000
 17.2271999999999998  2.1917800000000001 15.5890000000000004
 18.3572999999999986  0.2001970000000000 16.1393999999999984
 18.4344000000000001  2.8514800000000000 15.8729999999999993
 19.5932999999999993  0.8686220000000000 16.5039000000000016
 19.6055999999999990  2.2261500000000001 16.4604999999999997
 20.7231999999999985  0.2127390000000000 16.9877000000000002
 20.7948999999999984  2.9046799999999999 16.7839999999999989
 21.9655999999999985  0.8688900000000001 17.2475999999999985
 21.9865999999999993  2.2065600000000001 17.1206999999999994
 23.1976000000000013  0.1912760000000000 17.4804999999999993
 23.1626000000000012  2.8647300000000002 17.5986000000000011
 24.4083000000000006  0.8683010000000000 17.8395000000000010
 24.3630999999999993  2.1743199999999998 17.9318999999999988
 25.6271999999999984  0.1314080000000000 18.2576999999999998
 25.6449999999999996  2.8516400000000002 18.2718999999999987
 26.8506000000000000  0.8051360000000000 18.4822999999999986
 26.8652000000000015  2.2545400000000000 18.4889000000000010
  0.2808410000000000  4.8534199999999998 18.2031999999999989
  0.2418850000000000  6.2446400000000004 18.1687000000000012
  1.4701000000000000  4.1959799999999996 18.2852999999999994
  1.4564600000000001  6.8951300000000000 18.0509999999999984
  2.6560700000000002  4.8899200000000000 17.9579999999999984
  2.6441499999999998  6.2229400000000004 17.8155000000000001
  3.9036000000000000  4.2389799999999997 17.7297000000000011
  3.8768300000000000  6.8999199999999998 17.6198000000000015
  5.1009200000000003  4.9208800000000004 17.4035000000000011
  5.1076400000000000  6.2521300000000002 17.3460999999999999
  6.3184199999999997  4.2545799999999998 17.1289000000000016
  6.2901300000000004  6.9210599999999998 16.8968999999999987
  7.4889000000000001  4.8796200000000001 16.6183000000000014
  7.4693899999999998  6.2514000000000003 16.5446999999999989
  8.6385600000000000  4.2648999999999999 16.1356000000000002
  8.6301000000000005  6.9172500000000001 16.0381000000000000
  9.7690500000000000  4.8868900000000002 15.5812000000000008
  9.8406500000000001  6.2244900000000003 15.7179000000000002
 10.9825999999999997  4.2328599999999996 15.3468000000000000
 10.9733000000000001  6.9377300000000002 15.3529999999999998
 12.2302999999999997  4.8654000000000002 15.0418000000000003
 12.1814000000000000  6.2607999999999997 15.1196000000000002
 13.4822000000000006  4.2174500000000004 14.9006000000000007
 13.4483999999999995  6.9172799999999999 15.1569000000000003
 14.7109000000000005  4.8723099999999997 14.9596999999999998
 14.7060999999999993  6.2469900000000003 15.1247000000000007
 16.0044000000000004  4.1885000000000003 15.0930000000000000
 15.9657000000000000  6.9221599999999999 15.2957999999999998
 17.1676000000000002  4.8863599999999998 15.5152999999999999
 17.1814000000000000  6.2714999999999996 15.6195000000000004
 18.3892999999999986  4.2332400000000003 15.7704000000000004
 18.3723999999999990  6.9393300000000000 16.1204999999999998
 19.5557000000000016  4.9026300000000003 16.2647000000000013
 19.6010999999999989  6.3155500000000000 16.4148999999999994
 20.7911999999999999  4.2913199999999998 16.6754999999999995
 20.8175999999999988  6.9330499999999997 16.8540999999999990
 21.9693000000000005  4.9225399999999997 17.0468000000000011
 22.0177000000000014  6.2800300000000000 17.1091000000000015
 23.1870000000000012  4.2433500000000004 17.4690000000000012
 23.2215999999999987  6.9020000000000001 17.5077999999999996
 24.4180999999999990  4.8536099999999998 17.7831000000000010
 24.4480000000000004  6.2210599999999996 17.8724999999999987
 25.6727999999999987  4.2014500000000004 18.1447000000000003
 25.6523000000000003  6.9123299999999999 18.1000000000000014
 26.8659999999999997  4.8627000000000002 18.2197999999999993
 26.8826000000000001  6.2826199999999996 18.1830999999999996
