 C                                      
    1.000000000000000     
    28.0500000000000007    0.0000000000000000    0.0000000000000000
     0.0000000000000000    8.0999999999999996    0.0000000000000000
     0.0000000000000000    0.0000000000000000   33.5000000000000000
   C 
    92
Direct
     0.0062477361853865    0.1037471604938247    0.4636447761194020
     0.0075529055258485    0.2760888888888857    0.4626805970149235
     0.0483878787878780    0.0225571604938253    0.4696985074626880
     0.0489900178253109    0.3581358024691355    0.4685641791044759
     0.0929447415329747    0.1034834567901228    0.4805014925373143
     0.0952673796791430    0.2752123456790159    0.4782268656716440
     0.1377098039215667    0.0225106172839489    0.4856477611940306
     0.1378213903743344    0.3535962962962955    0.4846626865671624
     0.1800631016042757    0.1068906172839519    0.4986597014925351
     0.1792385026737975    0.2731753086419744    0.4989820895522357
     0.2204028520499079    0.0288756790123443    0.5141761194029826
     0.2222406417112310    0.3564925925925948    0.5036805970149274
     0.2623889483065938    0.1154161728395096    0.5299522388059685
     0.2635012477718348    0.2781259259259272    0.5203552238805997
     0.3061016042780764    0.0287404938271578    0.5375910447761214
     0.3072445632798591    0.3643037037037047    0.5284955223880630
     0.3502937611408186    0.1123044444444474    0.5444000000000031
     0.3497900178253133    0.2808444444444476    0.5425611940298509
     0.3955721925133702    0.0298469135802435    0.5488089552238833
     0.3964456327985744    0.3569851851851880    0.5429761194029865
     0.4399429590017832    0.1063207407407418    0.5550537313432855
     0.4394688057041023    0.2789987654320996    0.5519014925373114
     0.4839286987522300    0.0217790123456822    0.5534388059701456
     0.4812905525846674    0.3551432098765446    0.5465283582089526
     0.5294937611408201    0.1015459259259259    0.5514477611940265
     0.5288983957219244    0.2703604938271624    0.5487164179104482
     0.5733868092691594    0.0207967901234554    0.5421462686567153
     0.5745383244206792    0.3519271604938297    0.5377850746268678
     0.6189447415329781    0.1012498765432071    0.5353820895522361
     0.6155044563279830    0.2665185185185166    0.5314686567164202
     0.6607344028520501    0.0184890123456825    0.5197462686567178
     0.6575508021390348    0.3489913580246906    0.5170776119403016
     0.7005525846702341    0.0984686419753089    0.5049432835820866
     0.6988805704099832    0.2695234567901252    0.5040597014925368
     0.7416541889483099    0.0104778024691328    0.4893253731343279
     0.7386702317290528    0.3478740740740776    0.4861253731343282
     0.7825989304812850    0.0992076543209848    0.4794208955223880
     0.7804420677361890    0.2713876543209892    0.4765014925373166
     0.8247237076648872    0.0130395061728379    0.4677462686567182
     0.8246631016042798    0.3498271604938239    0.4656716417910474
     0.8679108734402874    0.0963148148148179    0.4690358208955203
     0.8684099821746898    0.2722246913580264    0.4690119402985076
     0.9133155080213911    0.0130446913580258    0.4633014925373118
     0.9124456327985726    0.3530555555555566    0.4590567164179120
     0.9557326203208589    0.0982112345678985    0.4650447761194059
     0.9556613190730872    0.2694592592592571    0.4644477611940303
     0.0079064884135462    0.5958037037037016    0.4464388059701463
     0.0086679144385045    0.7695691358024703    0.4451641791044807
     0.0502039215686310    0.5226037037037017    0.4592895522388076
     0.0497878787878818    0.8553493827160494    0.4587671641791076
     0.0962442067736191    0.6098259259259251    0.4681283582089577
     0.0941657754010663    0.7757925925925946    0.4686149253731315
     0.1397839572192510    0.5250580246913614    0.4772238805970161
     0.1375832442067733    0.8548049382716059    0.4824746268656739
     0.1837561497326234    0.6053271604938288    0.4841044776119432
     0.1821058823529427    0.7795111111111126    0.4885373134328361
     0.2256802139037433    0.5277913580246931    0.4976029850746286
     0.2212959001782551    0.8645851851851845    0.5079910447761193
     0.2678944741532945    0.6164160493827140    0.5077492537313404
     0.2657076648841326    0.7802999999999969    0.5170835820895547
     0.3101811051693417    0.5282530864197525    0.5196746268656725
     0.3065087344028541    0.8610938271604951    0.5332805970149224
     0.3526766488413529    0.6151074074074074    0.5298358208955207
     0.3517950089126529    0.7816185185185205    0.5332567164179096
     0.3957326203208567    0.5267160493827134    0.5356955223880604
     0.3953368983957191    0.8662024691357999    0.5418358208955212
     0.4387308377896630    0.6075604938271582    0.5350865671641785
     0.4397076648841320    0.7745876543209889    0.5394507462686562
     0.4842816399286960    0.5226407407407407    0.5407402985074654
     0.4858573975044536    0.8548950617283921    0.5446268656716384
     0.5285169340463440    0.6021185185185161    0.5374328358208942
     0.5282923351158644    0.7737185185185211    0.5367641791044804
     0.5727557932263849    0.5197024691358010    0.5332208955223905
     0.5724634581105192    0.8553592592592594    0.5300328358208972
     0.6142816399286986    0.5989148148148118    0.5193850746268680
     0.6146880570410005    0.7671654320987642    0.5172208955223851
     0.6556648841354757    0.5140049382716043    0.5065910447761226
     0.6567308377896595    0.8551777777777758    0.5081134328358203
     0.6947379679144419    0.6002333333333354    0.4896477611940284
     0.6949019607843141    0.7705185185185215    0.4909611940298504
     0.7377718360071270    0.5170296296296328    0.4789611940298499
     0.7387914438502676    0.8503395061728369    0.4818507462686554
     0.7801497326203233    0.5984037037037027    0.4661104477611957
     0.7808627450980410    0.7687024691358033    0.4671850746268689
     0.8247700534759375    0.5159925925925961    0.4591492537313400
     0.8258395721925140    0.8485740740740724    0.4611910447761218
     0.8697647058823534    0.5970641975308624    0.4519104477611933
     0.8687094474153270    0.7658086419753118    0.4517134328358239
     0.9125918003565090    0.5116604938271578    0.4481402985074610
     0.9133868092691628    0.8482777777777812    0.4528955223880615
     0.9563600713012477    0.5977604938271597    0.4445373134328392
     0.9565026737967912    0.7714753086419748    0.4456716417910442
 
  0.00000000E+00  0.00000000E+00  0.00000000E+00
  0.00000000E+00  0.00000000E+00  0.00000000E+00
  0.00000000E+00  0.00000000E+00  0.00000000E+00
  0.00000000E+00  0.00000000E+00  0.00000000E+00
  0.00000000E+00  0.00000000E+00  0.00000000E+00
  0.00000000E+00  0.00000000E+00  0.00000000E+00
  0.00000000E+00  0.00000000E+00  0.00000000E+00
  0.00000000E+00  0.00000000E+00  0.00000000E+00
  0.00000000E+00  0.00000000E+00  0.00000000E+00
  0.00000000E+00  0.00000000E+00  0.00000000E+00
  0.00000000E+00  0.00000000E+00  0.00000000E+00
  0.00000000E+00  0.00000000E+00  0.00000000E+00
  0.00000000E+00  0.00000000E+00  0.00000000E+00
  0.00000000E+00  0.00000000E+00  0.00000000E+00
  0.00000000E+00  0.00000000E+00  0.00000000E+00
  0.00000000E+00  0.00000000E+00  0.00000000E+00
  0.00000000E+00  0.00000000E+00  0.00000000E+00
  0.00000000E+00  0.00000000E+00  0.00000000E+00
  0.00000000E+00  0.00000000E+00  0.00000000E+00
  0.00000000E+00  0.00000000E+00  0.00000000E+00
  0.00000000E+00  0.00000000E+00  0.00000000E+00
  0.00000000E+00  0.00000000E+00  0.00000000E+00
  0.00000000E+00  0.00000000E+00  0.00000000E+00
  0.00000000E+00  0.00000000E+00  0.00000000E+00
  0.00000000E+00  0.00000000E+00  0.00000000E+00
  0.00000000E+00  0.00000000E+00  0.00000000E+00
  0.00000000E+00  0.00000000E+00  0.00000000E+00
  0.00000000E+00  0.00000000E+00  0.00000000E+00
  0.00000000E+00  0.00000000E+00  0.00000000E+00
  0.00000000E+00  0.00000000E+00  0.00000000E+00
  0.00000000E+00  0.00000000E+00  0.00000000E+00
  0.00000000E+00  0.00000000E+00  0.00000000E+00
  0.00000000E+00  0.00000000E+00  0.00000000E+00
  0.00000000E+00  0.00000000E+00  0.00000000E+00
  0.00000000E+00  0.00000000E+00  0.00000000E+00
  0.00000000E+00  0.00000000E+00  0.00000000E+00
  0.00000000E+00  0.00000000E+00  0.00000000E+00
  0.00000000E+00  0.00000000E+00  0.00000000E+00
  0.00000000E+00  0.00000000E+00  0.00000000E+00
  0.00000000E+00  0.00000000E+00  0.00000000E+00
  0.00000000E+00  0.00000000E+00  0.00000000E+00
  0.00000000E+00  0.00000000E+00  0.00000000E+00
  0.00000000E+00  0.00000000E+00  0.00000000E+00
  0.00000000E+00  0.00000000E+00  0.00000000E+00
  0.00000000E+00  0.00000000E+00  0.00000000E+00
  0.00000000E+00  0.00000000E+00  0.00000000E+00
  0.00000000E+00  0.00000000E+00  0.00000000E+00
  0.00000000E+00  0.00000000E+00  0.00000000E+00
  0.00000000E+00  0.00000000E+00  0.00000000E+00
  0.00000000E+00  0.00000000E+00  0.00000000E+00
  0.00000000E+00  0.00000000E+00  0.00000000E+00
  0.00000000E+00  0.00000000E+00  0.00000000E+00
  0.00000000E+00  0.00000000E+00  0.00000000E+00
  0.00000000E+00  0.00000000E+00  0.00000000E+00
  0.00000000E+00  0.00000000E+00  0.00000000E+00
  0.00000000E+00  0.00000000E+00  0.00000000E+00
  0.00000000E+00  0.00000000E+00  0.00000000E+00
  0.00000000E+00  0.00000000E+00  0.00000000E+00
  0.00000000E+00  0.00000000E+00  0.00000000E+00
  0.00000000E+00  0.00000000E+00  0.00000000E+00
  0.00000000E+00  0.00000000E+00  0.00000000E+00
  0.00000000E+00  0.00000000E+00  0.00000000E+00
  0.00000000E+00  0.00000000E+00  0.00000000E+00
  0.00000000E+00  0.00000000E+00  0.00000000E+00
  0.00000000E+00  0.00000000E+00  0.00000000E+00
  0.00000000E+00  0.00000000E+00  0.00000000E+00
  0.00000000E+00  0.00000000E+00  0.00000000E+00
  0.00000000E+00  0.00000000E+00  0.00000000E+00
  0.00000000E+00  0.00000000E+00  0.00000000E+00
  0.00000000E+00  0.00000000E+00  0.00000000E+00
  0.00000000E+00  0.00000000E+00  0.00000000E+00
  0.00000000E+00  0.00000000E+00  0.00000000E+00
  0.00000000E+00  0.00000000E+00  0.00000000E+00
  0.00000000E+00  0.00000000E+00  0.00000000E+00
  0.00000000E+00  0.00000000E+00  0.00000000E+00
  0.00000000E+00  0.00000000E+00  0.00000000E+00
  0.00000000E+00  0.00000000E+00  0.00000000E+00
  0.00000000E+00  0.00000000E+00  0.00000000E+00
  0.00000000E+00  0.00000000E+00  0.00000000E+00
  0.00000000E+00  0.00000000E+00  0.00000000E+00
  0.00000000E+00  0.00000000E+00  0.00000000E+00
  0.00000000E+00  0.00000000E+00  0.00000000E+00
  0.00000000E+00  0.00000000E+00  0.00000000E+00
  0.00000000E+00  0.00000000E+00  0.00000000E+00
  0.00000000E+00  0.00000000E+00  0.00000000E+00
  0.00000000E+00  0.00000000E+00  0.00000000E+00
  0.00000000E+00  0.00000000E+00  0.00000000E+00
  0.00000000E+00  0.00000000E+00  0.00000000E+00
  0.00000000E+00  0.00000000E+00  0.00000000E+00
  0.00000000E+00  0.00000000E+00  0.00000000E+00
  0.00000000E+00  0.00000000E+00  0.00000000E+00
  0.00000000E+00  0.00000000E+00  0.00000000E+00
