 C                                      
    1.000000000000000     
    28.0500000000000007    0.0000000000000000    0.0000000000000000
     0.0000000000000000    8.0999999999999996    0.0000000000000000
     0.0000000000000000    0.0000000000000000   33.5000000000000000
   C 
    92
Direct
     0.0131585383244186    0.1108434567901213    0.5284029850746279
     0.0126206773618520    0.2814111111111117    0.5214985074626881
     0.0562235294117670    0.0303183950617267    0.5179791044776110
     0.0526196078431340    0.3590135802469163    0.5035074626865637
     0.0970659536541874    0.1035937037037016    0.5011820895522376
     0.0932951871657721    0.2700000000000031    0.4933373134328392
     0.1394609625668437    0.0245002469135827    0.4899313432835797
     0.1348135472370799    0.3480259259259242    0.4770149253731333
     0.1819650623885920    0.1065871604938238    0.4785432835820913
     0.1803547237076657    0.2712209876543241    0.4706985074626857
     0.2262798573975076    0.0261350617283966    0.4716955223880603
     0.2229062388591814    0.3534703703703670    0.4604656716417921
     0.2692413547237109    0.1129348148148139    0.4606985074626877
     0.2673618538324405    0.2770716049382713    0.4520507462686538
     0.3116320855614987    0.0269350617283948    0.4565641791044754
     0.3118923351158642    0.3551296296296300    0.4431432835820885
     0.3552556149732595    0.1045349382716054    0.4474029850746248
     0.3556470588235285    0.2739987654320970    0.4401731343283615
     0.4001105169340491    0.0285223456790149    0.4510059701492537
     0.3993832442067742    0.3589716049382687    0.4436268656716393
     0.4454973262032098    0.1097191358024716    0.4487820895522390
     0.4451800356506226    0.2750308641975323    0.4461820895522379
     0.4862638146167555    0.0270297530864170    0.4594835820895540
     0.4898360071301227    0.3603950617283971    0.4558567164179124
     0.5311729055258496    0.1132406172839495    0.4665880597014933
     0.5315472370766514    0.2822580246913589    0.4675910447761211
     0.5724064171122976    0.0304258024691393    0.4806925373134305
     0.5740998217468771    0.3601123456790134    0.4801582089552241
     0.6174117647058850    0.1085592592592590    0.4874388059701502
     0.6164171122994659    0.2780691358024683    0.4913761194029860
     0.6591550802139068    0.0247408641975326    0.5025283582089557
     0.6589839572192489    0.3544567901234572    0.5048417910447753
     0.7005775401069485    0.1105660493827187    0.5155223880597006
     0.7022174688057063    0.2758493827160464    0.5120626865671625
     0.7431586452762957    0.0243127160493799    0.5288985074626851
     0.7442210338680937    0.3606209876543218    0.5253194029850761
     0.7848270944741529    0.1085130864197552    0.5398597014925386
     0.7865704099821755    0.2786481481481502    0.5358776119403004
     0.8309411764705885    0.0283340740740741    0.5481044776119433
     0.8317860962566854    0.3575518518518521    0.5414179104477626
     0.8750766488413575    0.1104364197530856    0.5493313432835834
     0.8758752228163971    0.2782037037037028    0.5466477611940306
     0.9191800356506263    0.0291479012345661    0.5473104477611912
     0.9186310160427809    0.3639962962962997    0.5394119402985069
     0.9626987522281638    0.1101413580246913    0.5385850746268659
     0.9627914438502643    0.2828617283950621    0.5334805970149219
     0.0115889839572176    0.6138962962962964    0.5150388059701498
     0.0142946524064200    0.7797382716049412    0.5234776119403008
     0.0510909090909095    0.5284716049382752    0.5014925373134318
     0.0566841354723735    0.8566839506172812    0.5151343283582079
     0.0947162210338703    0.6092024691358020    0.4929283582089568
     0.0987361853832454    0.7770530864197553    0.4991402985074629
     0.1357689839572203    0.5210111111111146    0.4797761194029846
     0.1407789661319043    0.8538111111111135    0.4877074626865650
     0.1787401069518708    0.6001728395061718    0.4665850746268632
     0.1799700534759339    0.7682753086419751    0.4729850746268625
     0.2216745098039183    0.5207283950617310    0.4582059701492511
     0.2244527629233488    0.8551407407407439    0.4710029850746267
     0.2643782531194319    0.6045839506172825    0.4533582089552226
     0.2669165775401083    0.7704580246913579    0.4640626865671607
     0.3089689839572216    0.5245345679012345    0.4462746268656730
     0.3104684491978631    0.8563975308642000    0.4596447761194042
     0.3533985739750420    0.6041518518518529    0.4480776119402989
     0.3531746880570381    0.7749604938271588    0.4511671641791040
     0.4010017825311962    0.5247234567901202    0.4456328358208950
     0.3984206773618553    0.8592123456790119    0.4528477611940289
     0.4439857397504454    0.6084246913580245    0.4530298507462689
     0.4416791443850272    0.7779012345678993    0.4573611940298505
     0.4876399286987549    0.5259333333333345    0.4618567164179126
     0.4865525846702283    0.8591543209876562    0.4643970149253747
     0.5271336898395731    0.6065395061728367    0.4770477611940294
     0.5279607843137271    0.7812925925925924    0.4762805970149273
     0.5710944741532984    0.5255037037037056    0.4857611940298483
     0.5707486631016039    0.8586382716049386    0.4849462686567136
     0.6138502673796822    0.6062580246913569    0.4974955223880571
     0.6130659536541856    0.7753419753086419    0.4984328358208927
     0.6573262032085552    0.5244395061728397    0.5071791044776148
     0.6550837789661301    0.8583358024691350    0.5101462686567189
     0.6999322638146168    0.6074135802469129    0.5222955223880632
     0.6998146167557948    0.7786172839506165    0.5238268656716443
     0.7409269162210350    0.5201592592592590    0.5322119402985095
     0.7424705882352924    0.8554888888888854    0.5345970149253745
     0.7852121212121190    0.6053666666666686    0.5425283582089548
     0.7865989304812828    0.7766506172839485    0.5462447761194014
     0.8308413547237095    0.5239654320987626    0.5421343283582090
     0.8313333333333333    0.8577901234567875    0.5500358208955234
     0.8757433155080179    0.6135320987654325    0.5422805970149227
     0.8769269162210307    0.7806283950617257    0.5495940298507449
     0.9198680926916225    0.5364123456790111    0.5359104477611965
     0.9213083778966151    0.8575493827160514    0.5447552238805997
     0.9625739750445632    0.6185827160493815    0.5304477611940328
     0.9641283422459921    0.7873728395061761    0.5382119402985097
 
  0.00000000E+00  0.00000000E+00  0.00000000E+00
  0.00000000E+00  0.00000000E+00  0.00000000E+00
  0.00000000E+00  0.00000000E+00  0.00000000E+00
  0.00000000E+00  0.00000000E+00  0.00000000E+00
  0.00000000E+00  0.00000000E+00  0.00000000E+00
  0.00000000E+00  0.00000000E+00  0.00000000E+00
  0.00000000E+00  0.00000000E+00  0.00000000E+00
  0.00000000E+00  0.00000000E+00  0.00000000E+00
  0.00000000E+00  0.00000000E+00  0.00000000E+00
  0.00000000E+00  0.00000000E+00  0.00000000E+00
  0.00000000E+00  0.00000000E+00  0.00000000E+00
  0.00000000E+00  0.00000000E+00  0.00000000E+00
  0.00000000E+00  0.00000000E+00  0.00000000E+00
  0.00000000E+00  0.00000000E+00  0.00000000E+00
  0.00000000E+00  0.00000000E+00  0.00000000E+00
  0.00000000E+00  0.00000000E+00  0.00000000E+00
  0.00000000E+00  0.00000000E+00  0.00000000E+00
  0.00000000E+00  0.00000000E+00  0.00000000E+00
  0.00000000E+00  0.00000000E+00  0.00000000E+00
  0.00000000E+00  0.00000000E+00  0.00000000E+00
  0.00000000E+00  0.00000000E+00  0.00000000E+00
  0.00000000E+00  0.00000000E+00  0.00000000E+00
  0.00000000E+00  0.00000000E+00  0.00000000E+00
  0.00000000E+00  0.00000000E+00  0.00000000E+00
  0.00000000E+00  0.00000000E+00  0.00000000E+00
  0.00000000E+00  0.00000000E+00  0.00000000E+00
  0.00000000E+00  0.00000000E+00  0.00000000E+00
  0.00000000E+00  0.00000000E+00  0.00000000E+00
  0.00000000E+00  0.00000000E+00  0.00000000E+00
  0.00000000E+00  0.00000000E+00  0.00000000E+00
  0.00000000E+00  0.00000000E+00  0.00000000E+00
  0.00000000E+00  0.00000000E+00  0.00000000E+00
  0.00000000E+00  0.00000000E+00  0.00000000E+00
  0.00000000E+00  0.00000000E+00  0.00000000E+00
  0.00000000E+00  0.00000000E+00  0.00000000E+00
  0.00000000E+00  0.00000000E+00  0.00000000E+00
  0.00000000E+00  0.00000000E+00  0.00000000E+00
  0.00000000E+00  0.00000000E+00  0.00000000E+00
  0.00000000E+00  0.00000000E+00  0.00000000E+00
  0.00000000E+00  0.00000000E+00  0.00000000E+00
  0.00000000E+00  0.00000000E+00  0.00000000E+00
  0.00000000E+00  0.00000000E+00  0.00000000E+00
  0.00000000E+00  0.00000000E+00  0.00000000E+00
  0.00000000E+00  0.00000000E+00  0.00000000E+00
  0.00000000E+00  0.00000000E+00  0.00000000E+00
  0.00000000E+00  0.00000000E+00  0.00000000E+00
  0.00000000E+00  0.00000000E+00  0.00000000E+00
  0.00000000E+00  0.00000000E+00  0.00000000E+00
  0.00000000E+00  0.00000000E+00  0.00000000E+00
  0.00000000E+00  0.00000000E+00  0.00000000E+00
  0.00000000E+00  0.00000000E+00  0.00000000E+00
  0.00000000E+00  0.00000000E+00  0.00000000E+00
  0.00000000E+00  0.00000000E+00  0.00000000E+00
  0.00000000E+00  0.00000000E+00  0.00000000E+00
  0.00000000E+00  0.00000000E+00  0.00000000E+00
  0.00000000E+00  0.00000000E+00  0.00000000E+00
  0.00000000E+00  0.00000000E+00  0.00000000E+00
  0.00000000E+00  0.00000000E+00  0.00000000E+00
  0.00000000E+00  0.00000000E+00  0.00000000E+00
  0.00000000E+00  0.00000000E+00  0.00000000E+00
  0.00000000E+00  0.00000000E+00  0.00000000E+00
  0.00000000E+00  0.00000000E+00  0.00000000E+00
  0.00000000E+00  0.00000000E+00  0.00000000E+00
  0.00000000E+00  0.00000000E+00  0.00000000E+00
  0.00000000E+00  0.00000000E+00  0.00000000E+00
  0.00000000E+00  0.00000000E+00  0.00000000E+00
  0.00000000E+00  0.00000000E+00  0.00000000E+00
  0.00000000E+00  0.00000000E+00  0.00000000E+00
  0.00000000E+00  0.00000000E+00  0.00000000E+00
  0.00000000E+00  0.00000000E+00  0.00000000E+00
  0.00000000E+00  0.00000000E+00  0.00000000E+00
  0.00000000E+00  0.00000000E+00  0.00000000E+00
  0.00000000E+00  0.00000000E+00  0.00000000E+00
  0.00000000E+00  0.00000000E+00  0.00000000E+00
  0.00000000E+00  0.00000000E+00  0.00000000E+00
  0.00000000E+00  0.00000000E+00  0.00000000E+00
  0.00000000E+00  0.00000000E+00  0.00000000E+00
  0.00000000E+00  0.00000000E+00  0.00000000E+00
  0.00000000E+00  0.00000000E+00  0.00000000E+00
  0.00000000E+00  0.00000000E+00  0.00000000E+00
  0.00000000E+00  0.00000000E+00  0.00000000E+00
  0.00000000E+00  0.00000000E+00  0.00000000E+00
  0.00000000E+00  0.00000000E+00  0.00000000E+00
  0.00000000E+00  0.00000000E+00  0.00000000E+00
  0.00000000E+00  0.00000000E+00  0.00000000E+00
  0.00000000E+00  0.00000000E+00  0.00000000E+00
  0.00000000E+00  0.00000000E+00  0.00000000E+00
  0.00000000E+00  0.00000000E+00  0.00000000E+00
  0.00000000E+00  0.00000000E+00  0.00000000E+00
  0.00000000E+00  0.00000000E+00  0.00000000E+00
  0.00000000E+00  0.00000000E+00  0.00000000E+00
  0.00000000E+00  0.00000000E+00  0.00000000E+00
