 C                                      
    1.000000000000000     
    28.0500000000000007    0.0000000000000000    0.0000000000000000
     0.0000000000000000    8.0999999999999996    0.0000000000000000
     0.0000000000000000    0.0000000000000000   33.5000000000000000
   C 
    92
Direct
     0.0042558645276287    0.1003828395061745    0.4551582089552255
     0.0037731194295887    0.2824481481481484    0.4641880597014918
     0.0490873440285213    0.0352033333333353    0.4515910447761229
     0.0472830659536569    0.3613086419753060    0.4625910447761186
     0.0942573975044567    0.1141890123456761    0.4575522388059667
     0.0931878787878802    0.2785246913580224    0.4644029850746278
     0.1388210338680906    0.0281186419753112    0.4593910447761189
     0.1363853832442032    0.3568061728395051    0.4756089552238834
     0.1821390374331529    0.1119818518518514    0.4725044776119418
     0.1795418894830689    0.2767382716049411    0.4842746268656697
     0.2260495543672008    0.0305665432098792    0.4822865671641807
     0.2194228163992875    0.3585604938271629    0.4997104477611956
     0.2658310160427817    0.1075323456790116    0.5007791044776084
     0.2633707664884142    0.2704814814814824    0.5064805970149280
     0.3104417112299487    0.0253037037037060    0.5069641791044788
     0.3050663101604272    0.3514518518518486    0.5154805970149283
     0.3512203208556173    0.1070801234567895    0.5224626865671667
     0.3499361853832426    0.2773395061728365    0.5245164179104478
     0.3935008912655960    0.0260771604938270    0.5298746268656700
     0.3936648841354753    0.3553950617283945    0.5318746268656724
     0.4362709447415298    0.1066586419753079    0.5396507462686557
     0.4365632798573955    0.2728086419753097    0.5408208955223870
     0.4815294117647042    0.0201203703703712    0.5357522388059692
     0.4806167557932284    0.3407395061728380    0.5438298507462704
     0.5252905525846714    0.0939585185185194    0.5419910447761183
     0.5270160427807511    0.2642999999999986    0.5483522388059683
     0.5690124777183598    0.0129487654320997    0.5361820895522413
     0.5705204991087314    0.3435172839506180    0.5476805970149243
     0.6123992869875252    0.0943314814814826    0.5314238805970177
     0.6143315508021416    0.2613901234567919    0.5406835820895495
     0.6566666666666663    0.0223675308641944    0.5253522388059721
     0.6586844919786117    0.3470111111111081    0.5353462686567170
     0.7001889483065966    0.1007754320987644    0.5166805970149255
     0.7009803921568647    0.2686469135802483    0.5239104477611960
     0.7414474153297661    0.0222840740740722    0.5043910447761206
     0.7443850267379659    0.3529592592592579    0.5141761194029826
     0.7832370766488381    0.1012197530864185    0.4934985074626894
     0.7861354723707663    0.2715592592592628    0.5002925373134346
     0.8246345811051725    0.0215866666666642    0.4807701492537291
     0.8294224598930455    0.3497765432098774    0.4901223880597030
     0.8659286987522279    0.1008832098765424    0.4684089552238788
     0.8678645276292301    0.2696407407407406    0.4719552238805989
     0.9087843137254907    0.0235749382716079    0.4616567164179131
     0.9122067736185357    0.3546679012345706    0.4699791044776092
     0.9518003565062401    0.1047282716049409    0.4556298507462699
     0.9547736185383258    0.2782456790123433    0.4606985074626877
     0.0084827450980427    0.6113864197530887    0.4529462686567172
     0.0075322994652396    0.7832185185185168    0.4486626865671610
     0.0507443850267393    0.5333074074074062    0.4598358208955204
     0.0514716577540142    0.8615024691358002    0.4503223880597034
     0.0951497326203210    0.6137432098765458    0.4619432835820874
     0.0954495543671996    0.7833049382716055    0.4579731343283555
     0.1363643493761160    0.5308617283950596    0.4733850746268686
     0.1404923351158658    0.8596098765432103    0.4616179104477638
     0.1798235294117632    0.6133654320987674    0.4807820895522354
     0.1830566844919801    0.7776283950617255    0.4743611940298536
     0.2216727272727255    0.5272753086419755    0.4918626865671669
     0.2251508021390407    0.8606172839506172    0.4839253731343263
     0.2671197860962593    0.6035629629629611    0.4935850746268642
     0.2687130124777184    0.7769765432098765    0.4926000000000030
     0.3087625668449192    0.5229679012345656    0.5056865671641759
     0.3109226381461667    0.8554358024691382    0.5019731343283595
     0.3524819964349390    0.6026530864197497    0.5138000000000034
     0.3551401069518718    0.7739333333333320    0.5112835820895540
     0.3924099821746907    0.5222654320987630    0.5258776119402953
     0.3956862745098064    0.8553629629629640    0.5239552238805985
     0.4379358288770021    0.5953777777777773    0.5288477611940294
     0.4380213903743311    0.7635604938271641    0.5272776119402991
     0.4821140819964356    0.5092271604938290    0.5395313432835849
     0.4823458110516938    0.8447555555555581    0.5324567164179115
     0.5265846702317276    0.5914481481481459    0.5375791044776150
     0.5249910873440271    0.7604074074074063    0.5362746268656693
     0.5709411764705905    0.5117061728395029    0.5443492537313404
     0.5696007130124769    0.8469740740740761    0.5357253731343263
     0.6150124777183592    0.5923913580246918    0.5414507462686586
     0.6138110516934034    0.7599679012345675    0.5340238805970117
     0.6601033868092685    0.5149345679012356    0.5389970149253713
     0.6566274509803947    0.8501703703703711    0.5252328358208942
     0.7029483065953670    0.6054086419753091    0.5272985074626888
     0.7017575757575756    0.7705814814814786    0.5246268656716424
     0.7438146167557917    0.5207975308642006    0.5146776119403000
     0.7439750445632782    0.8548320987654350    0.5142567164179113
     0.7875115864527658    0.6046851851851827    0.5040268656716407
     0.7861247771836020    0.7757086419753065    0.5012507462686600
     0.8301675579322634    0.5190197530864182    0.4903134328358192
     0.8259251336898430    0.8528802469135783    0.4850805970149281
     0.8703030303030275    0.6033123456790150    0.4766955223880629
     0.8683672014260253    0.7748234567901235    0.4731641791044794
     0.9145882352941186    0.5230395061728430    0.4714776119403012
     0.9099108734402819    0.8552160493827188    0.4620268656716391
     0.9548235294117617    0.6154012345678979    0.4622776119403014
     0.9548128342245974    0.7791901234567931    0.4577761194029861
 
  0.00000000E+00  0.00000000E+00  0.00000000E+00
  0.00000000E+00  0.00000000E+00  0.00000000E+00
  0.00000000E+00  0.00000000E+00  0.00000000E+00
  0.00000000E+00  0.00000000E+00  0.00000000E+00
  0.00000000E+00  0.00000000E+00  0.00000000E+00
  0.00000000E+00  0.00000000E+00  0.00000000E+00
  0.00000000E+00  0.00000000E+00  0.00000000E+00
  0.00000000E+00  0.00000000E+00  0.00000000E+00
  0.00000000E+00  0.00000000E+00  0.00000000E+00
  0.00000000E+00  0.00000000E+00  0.00000000E+00
  0.00000000E+00  0.00000000E+00  0.00000000E+00
  0.00000000E+00  0.00000000E+00  0.00000000E+00
  0.00000000E+00  0.00000000E+00  0.00000000E+00
  0.00000000E+00  0.00000000E+00  0.00000000E+00
  0.00000000E+00  0.00000000E+00  0.00000000E+00
  0.00000000E+00  0.00000000E+00  0.00000000E+00
  0.00000000E+00  0.00000000E+00  0.00000000E+00
  0.00000000E+00  0.00000000E+00  0.00000000E+00
  0.00000000E+00  0.00000000E+00  0.00000000E+00
  0.00000000E+00  0.00000000E+00  0.00000000E+00
  0.00000000E+00  0.00000000E+00  0.00000000E+00
  0.00000000E+00  0.00000000E+00  0.00000000E+00
  0.00000000E+00  0.00000000E+00  0.00000000E+00
  0.00000000E+00  0.00000000E+00  0.00000000E+00
  0.00000000E+00  0.00000000E+00  0.00000000E+00
  0.00000000E+00  0.00000000E+00  0.00000000E+00
  0.00000000E+00  0.00000000E+00  0.00000000E+00
  0.00000000E+00  0.00000000E+00  0.00000000E+00
  0.00000000E+00  0.00000000E+00  0.00000000E+00
  0.00000000E+00  0.00000000E+00  0.00000000E+00
  0.00000000E+00  0.00000000E+00  0.00000000E+00
  0.00000000E+00  0.00000000E+00  0.00000000E+00
  0.00000000E+00  0.00000000E+00  0.00000000E+00
  0.00000000E+00  0.00000000E+00  0.00000000E+00
  0.00000000E+00  0.00000000E+00  0.00000000E+00
  0.00000000E+00  0.00000000E+00  0.00000000E+00
  0.00000000E+00  0.00000000E+00  0.00000000E+00
  0.00000000E+00  0.00000000E+00  0.00000000E+00
  0.00000000E+00  0.00000000E+00  0.00000000E+00
  0.00000000E+00  0.00000000E+00  0.00000000E+00
  0.00000000E+00  0.00000000E+00  0.00000000E+00
  0.00000000E+00  0.00000000E+00  0.00000000E+00
  0.00000000E+00  0.00000000E+00  0.00000000E+00
  0.00000000E+00  0.00000000E+00  0.00000000E+00
  0.00000000E+00  0.00000000E+00  0.00000000E+00
  0.00000000E+00  0.00000000E+00  0.00000000E+00
  0.00000000E+00  0.00000000E+00  0.00000000E+00
  0.00000000E+00  0.00000000E+00  0.00000000E+00
  0.00000000E+00  0.00000000E+00  0.00000000E+00
  0.00000000E+00  0.00000000E+00  0.00000000E+00
  0.00000000E+00  0.00000000E+00  0.00000000E+00
  0.00000000E+00  0.00000000E+00  0.00000000E+00
  0.00000000E+00  0.00000000E+00  0.00000000E+00
  0.00000000E+00  0.00000000E+00  0.00000000E+00
  0.00000000E+00  0.00000000E+00  0.00000000E+00
  0.00000000E+00  0.00000000E+00  0.00000000E+00
  0.00000000E+00  0.00000000E+00  0.00000000E+00
  0.00000000E+00  0.00000000E+00  0.00000000E+00
  0.00000000E+00  0.00000000E+00  0.00000000E+00
  0.00000000E+00  0.00000000E+00  0.00000000E+00
  0.00000000E+00  0.00000000E+00  0.00000000E+00
  0.00000000E+00  0.00000000E+00  0.00000000E+00
  0.00000000E+00  0.00000000E+00  0.00000000E+00
  0.00000000E+00  0.00000000E+00  0.00000000E+00
  0.00000000E+00  0.00000000E+00  0.00000000E+00
  0.00000000E+00  0.00000000E+00  0.00000000E+00
  0.00000000E+00  0.00000000E+00  0.00000000E+00
  0.00000000E+00  0.00000000E+00  0.00000000E+00
  0.00000000E+00  0.00000000E+00  0.00000000E+00
  0.00000000E+00  0.00000000E+00  0.00000000E+00
  0.00000000E+00  0.00000000E+00  0.00000000E+00
  0.00000000E+00  0.00000000E+00  0.00000000E+00
  0.00000000E+00  0.00000000E+00  0.00000000E+00
  0.00000000E+00  0.00000000E+00  0.00000000E+00
  0.00000000E+00  0.00000000E+00  0.00000000E+00
  0.00000000E+00  0.00000000E+00  0.00000000E+00
  0.00000000E+00  0.00000000E+00  0.00000000E+00
  0.00000000E+00  0.00000000E+00  0.00000000E+00
  0.00000000E+00  0.00000000E+00  0.00000000E+00
  0.00000000E+00  0.00000000E+00  0.00000000E+00
  0.00000000E+00  0.00000000E+00  0.00000000E+00
  0.00000000E+00  0.00000000E+00  0.00000000E+00
  0.00000000E+00  0.00000000E+00  0.00000000E+00
  0.00000000E+00  0.00000000E+00  0.00000000E+00
  0.00000000E+00  0.00000000E+00  0.00000000E+00
  0.00000000E+00  0.00000000E+00  0.00000000E+00
  0.00000000E+00  0.00000000E+00  0.00000000E+00
  0.00000000E+00  0.00000000E+00  0.00000000E+00
  0.00000000E+00  0.00000000E+00  0.00000000E+00
  0.00000000E+00  0.00000000E+00  0.00000000E+00
  0.00000000E+00  0.00000000E+00  0.00000000E+00
  0.00000000E+00  0.00000000E+00  0.00000000E+00
