 C 
 1.0000000000000000
    28.0500000000000007    0.0000000000000000    0.0000000000000000
     0.0000000000000000    8.0999999999999996    0.0000000000000000
     0.0000000000000000    0.0000000000000000   33.5000000000000000
 C  
  92
Cartesian
  0.1193770000000000  0.8131010000000000 15.2477999999999998
  0.1058360000000000  2.2878300000000000 15.5503000000000000
  1.3769000000000000  0.2851470000000000 15.1282999999999994
  1.3262900000000000  2.9266000000000001 15.4968000000000004
  2.6439200000000000  0.9249309999999999 15.3279999999999994
  2.6139199999999998  2.2560500000000001 15.5574999999999992
  3.8939300000000001  0.2277610000000000 15.3895999999999997
  3.8256100000000002  2.8901300000000001 15.9329000000000001
  5.1090000000000000  0.9070530000000000 15.8289000000000009
  5.0361500000000001  2.2415799999999999 16.2231999999999985
  6.3406900000000004  0.2475890000000000 16.1566000000000010
  6.1548100000000003  2.9043399999999999 16.7403000000000013
  7.4565599999999996  0.8710120000000000 16.7760999999999996
  7.3875500000000001  2.1909000000000001 16.9670999999999985
  8.7078900000000008  0.2049600000000000 16.9832999999999998
  8.5571099999999998  2.8467600000000002 17.2685999999999993
  9.8517299999999999  0.8673490000000000 17.5025000000000013
  9.8157099999999993  2.2464499999999998 17.5713000000000008
 11.0376999999999992  0.2112250000000000 17.7508000000000017
 11.0422999999999991  2.8786999999999998 17.8177999999999983
 12.2373999999999992  0.8639350000000000 18.0782999999999987
 12.2455999999999996  2.2097500000000001 18.1174999999999997
 13.5068999999999999  0.1629750000000000 17.9477000000000011
 13.4812999999999992  2.7599900000000002 18.2182999999999993
 14.7344000000000008  0.7610640000000000 18.1567000000000007
 14.7827999999999999  2.1408299999999998 18.3698000000000015
 15.9608000000000008  0.1048850000000000 17.9620999999999995
 16.0030999999999999  2.7824900000000001 18.3473000000000006
 17.1778000000000013  0.7640850000000000 17.8027000000000015
 17.2319999999999993  2.1172599999999999 18.1128999999999998
 18.4194999999999993  0.1811770000000000 17.5992999999999995
 18.4760999999999989  2.8107899999999999 17.9341000000000008
 19.6402999999999999  0.8162810000000000 17.3088000000000015
 19.6625000000000014  2.1760400000000000 17.5509999999999984
 20.7975999999999992  0.1805010000000000 16.8970999999999982
 20.8799999999999990  2.8589699999999998 17.2249000000000017
 21.9697999999999993  0.8198800000000001 16.5321999999999996
 22.0511000000000017  2.1996300000000000 16.7597999999999985
 23.1310000000000002  0.1748520000000000 16.1057999999999986
 23.2652999999999999  2.8331900000000001 16.4191000000000003
 24.2893000000000008  0.8171540000000000 15.6917000000000009
 24.3435999999999986  2.1840899999999999 15.8104999999999993
 25.4913999999999987  0.1909570000000000 15.4655000000000005
 25.5873999999999988  2.8728099999999999 15.7443000000000008
 26.6980000000000004  0.8482990000000000 15.2636000000000003
 26.7814000000000014  2.2537900000000000 15.4334000000000007
  0.2379410000000000  4.9522300000000001 15.1737000000000002
  0.2112810000000000  6.3440700000000003 15.0302000000000007
  1.4233800000000001  4.3197900000000002 15.4045000000000005
  1.4437800000000001  6.9781700000000004 15.0858000000000008
  2.6689500000000002  4.9713200000000004 15.4750999999999994
  2.6773600000000002  6.3447699999999996 15.3421000000000003
  3.8250199999999999  4.2999799999999997 15.8583999999999996
  3.9408099999999999  6.9628399999999999 15.4641999999999999
  5.0440500000000004  4.9682599999999999 16.1062000000000012
  5.1347399999999999  6.2987900000000003 15.8910999999999998
  6.2179200000000003  4.2709299999999999 16.4773999999999994
  6.3154800000000000  6.9710000000000001 16.2115000000000009
  7.4927099999999998  4.8888600000000002 16.5350999999999999
  7.5373999999999999  6.2935100000000004 16.5020999999999987
  8.6607900000000004  4.2360400000000000 16.9405000000000001
  8.7213799999999999  6.9290300000000000 16.8160999999999987
  9.8871199999999995  4.8814900000000003 17.2122999999999990
  9.9616799999999994  6.2688600000000001 17.1280000000000001
 11.0070999999999994  4.2303499999999996 17.6169000000000011
 11.0990000000000002  6.9284400000000002 17.5524999999999984
 12.2841000000000005  4.8225600000000002 17.7164000000000001
 12.2865000000000002  6.1848400000000003 17.6637999999999984
 13.5233000000000008  4.1247400000000001 18.0743000000000009
 13.5297999999999998  6.8425200000000004 17.8372999999999990
 14.7706999999999997  4.7907299999999999 18.0089000000000006
 14.7260000000000009  6.1593000000000000 17.9651999999999994
 16.0149000000000008  4.1448200000000002 18.2357000000000014
 15.9772999999999996  6.8604900000000004 17.9467999999999996
 17.2511000000000010  4.7983700000000002 18.1386000000000003
 17.2174000000000014  6.1557399999999998 17.8898000000000010
 18.5158999999999985  4.1709699999999996 18.0564000000000000
 18.4183999999999983  6.8863799999999999 17.5953000000000017
 19.7177000000000007  4.9038100000000000 17.6645000000000003
 19.6843000000000004  6.2417100000000003 17.5749999999999993
 20.8640000000000008  4.2184600000000003 17.2417000000000016
 20.8685000000000009  6.9241400000000004 17.2275999999999989
 22.0897000000000006  4.8979499999999998 16.8848999999999982
 22.0507999999999988  6.2832400000000002 16.7918999999999983
 23.2862000000000009  4.2040600000000001 16.4254999999999995
 23.1672000000000011  6.9083300000000003 16.2501999999999995
 24.4119999999999990  4.8868299999999998 15.9693000000000005
 24.3577000000000012  6.2760699999999998 15.8510000000000009
 25.6541999999999994  4.2366200000000003 15.7944999999999993
 25.5229999999999997  6.9272499999999999 15.4779000000000000
 26.7828000000000017  4.9847500000000000 15.4863000000000000
 26.7824999999999989  6.3114400000000002 15.3354999999999997
