 C                                      
    1.000000000000000     
    28.0500000000000007    0.0000000000000000    0.0000000000000000
     0.0000000000000000    8.0999999999999996    0.0000000000000000
     0.0000000000000000    0.0000000000000000   33.5000000000000000
   C 
    92
Direct
     0.0086238502673766    0.1000255555555540    0.5021044776119368
     0.0091576114081988    0.2702259259259279    0.5009582089552254
     0.0481336898395739    0.0232799999999997    0.5175432835820928
     0.0481030303030323    0.3510481481481449    0.5181552238805978
     0.0914278074866317    0.0989867901234547    0.5278268656716421
     0.0917180035650631    0.2725209876543175    0.5258507462686595
     0.1341575757575768    0.0188893827160470    0.5379104477611918
     0.1337850267379679    0.3544148148148167    0.5332597014925398
     0.1787233511586450    0.1014839506172862    0.5404477611940308
     0.1771754010695190    0.2692740740740760    0.5383850746268664
     0.2219992869875256    0.0162061728395031    0.5441373134328344
     0.2209846702317293    0.3530086419753076    0.5414029850746260
     0.2658773618538319    0.1035276543209847    0.5388537313432806
     0.2644367201426050    0.2731444444444477    0.5358358208955210
     0.3103301247771810    0.0270955555555545    0.5383641791044766
     0.3097786096256669    0.3574074074074076    0.5341940298507453
     0.3537547237076666    0.1069608641975321    0.5289999999999964
     0.3527379679144360    0.2771506172839509    0.5271373134328385
     0.3970909090909061    0.0323122222222239    0.5202268656716384
     0.3969839572192484    0.3641444444444417    0.5194716417910428
     0.4368948306595399    0.1109712345678986    0.5082895522388071
     0.4377825311942942    0.2806382716049356    0.5055552238805987
     0.4800570409982186    0.0224207407407420    0.4987850746268663
     0.4816506238859191    0.3522185185185194    0.4993880597014950
     0.5225668449197869    0.1051290123456781    0.4854447761194010
     0.5245668449197893    0.2696049382716055    0.4876656716417926
     0.5644563279857380    0.0241332098765454    0.4718447761194042
     0.5686916221033869    0.3549395061728404    0.4785731343283572
     0.6063992869875250    0.0952529629629595    0.4589671641791071
     0.6106737967914455    0.2715641975308642    0.4630895522388059
     0.6505811051693371    0.0217013580246928    0.4514149253731361
     0.6542103386809259    0.3535283950617298    0.4585492537313414
     0.6960249554367195    0.1013676543209883    0.4448805970149223
     0.6976755793226417    0.2692308641975316    0.4502388059701516
     0.7429376114082018    0.0156212345679023    0.4449791044776106
     0.7435686274509834    0.3474493827160501    0.4548388059701480
     0.7887308377896645    0.0975319753086410    0.4471402985074633
     0.7884848484848490    0.2633950617283958    0.4489582089552258
     0.8330730837789631    0.0178814814814814    0.4548955223880569
     0.8315365418894842    0.3486382716049405    0.4568537313432870
     0.8762210338680916    0.1013001234567881    0.4606985074626877
     0.8754688057041022    0.2731222222222200    0.4641402985074592
     0.9194224598930489    0.0222143209876577    0.4746029850746254
     0.9185490196078447    0.3543629629629663    0.4775253731343270
     0.9628057040998215    0.0969386419753064    0.4815164179104485
     0.9632335115864521    0.2788024691358046    0.4824805970149271
     0.0027655614973270    0.6097950617283985    0.5208089552238775
     0.0012613796791427    0.7835506172839501    0.5190089552238817
     0.0439219251336880    0.5243160493827190    0.5295970149253719
     0.0437087344028555    0.8608086419753107    0.5298656716417938
     0.0857311942959029    0.6035222222222245    0.5400656716417913
     0.0857212121212143    0.7730395061728430    0.5432656716417910
     0.1323932263814598    0.5230839506172842    0.5432686567164211
     0.1319126559714761    0.8472160493827161    0.5438388059701467
     0.1764395721925140    0.6002345679012322    0.5508656716417875
     0.1752516934046326    0.7728814814814839    0.5515432835820917
     0.2226837789661289    0.5220851851851833    0.5467253731343291
     0.2209985739750451    0.8531629629629620    0.5523850746268621
     0.2672880570410001    0.5993530864197538    0.5487044776119419
     0.2661490196078447    0.7694407407407411    0.5515970149253704
     0.3117508021390378    0.5228888888888861    0.5432567164179076
     0.3090891265597122    0.8567728395061707    0.5456597014925393
     0.3552645276292310    0.6098160493827152    0.5392985074626893
     0.3545540106951890    0.7769395061728375    0.5385820895522357
     0.3980998217468823    0.5265728395061728    0.5274268656716430
     0.3969304812834196    0.8563777777777801    0.5254567164179136
     0.4427165775401036    0.6065518518518545    0.5185940298507461
     0.4416577540106985    0.7774098765432100    0.5190746268656738
     0.4815828877005330    0.5225506172839474    0.5030865671641820
     0.4822959001782507    0.8577888888888907    0.5032268656716425
     0.5265775401069490    0.6039358024691381    0.4958537313432814
     0.5277112299465259    0.7725617283950612    0.4932835820895534
     0.5700320855615004    0.5225740740740719    0.4849134328358176
     0.5664670231729048    0.8586716049382730    0.4793402985074593
     0.6130409982174712    0.6062814814814814    0.4750149253731308
     0.6114973262032066    0.7722790123456775    0.4718298507462677
     0.6552941176470597    0.5245098765432132    0.4637373134328371
     0.6534581105169366    0.8565679012345697    0.4563194029850735
     0.7000106951871672    0.6036802469135836    0.4568776119402997
     0.6976399286987487    0.7737888888888875    0.4536417910447739
     0.7447985739750465    0.5127456790123475    0.4567940298507480
     0.7431479500891243    0.8537395061728432    0.4521940298507445
     0.7875721925133661    0.5988308641975308    0.4579373134328364
     0.7873582887700508    0.7719000000000023    0.4589582089552238
     0.8315900178253131    0.5201407407407430    0.4602925373134354
     0.8309590017825315    0.8507851851851882    0.4630000000000010
     0.8755329768270954    0.6000469135802504    0.4694328358208963
     0.8746131907308410    0.7761382716049354    0.4713611940298534
     0.9185739750445663    0.5248382716049349    0.4814208955223904
     0.9175543672014257    0.8555530864197536    0.4801014925373153
     0.9563565062388619    0.6069716049382734    0.5010985074626859
     0.9564812834224625    0.7772209876543243    0.4990059701492555
 
  0.00000000E+00  0.00000000E+00  0.00000000E+00
  0.00000000E+00  0.00000000E+00  0.00000000E+00
  0.00000000E+00  0.00000000E+00  0.00000000E+00
  0.00000000E+00  0.00000000E+00  0.00000000E+00
  0.00000000E+00  0.00000000E+00  0.00000000E+00
  0.00000000E+00  0.00000000E+00  0.00000000E+00
  0.00000000E+00  0.00000000E+00  0.00000000E+00
  0.00000000E+00  0.00000000E+00  0.00000000E+00
  0.00000000E+00  0.00000000E+00  0.00000000E+00
  0.00000000E+00  0.00000000E+00  0.00000000E+00
  0.00000000E+00  0.00000000E+00  0.00000000E+00
  0.00000000E+00  0.00000000E+00  0.00000000E+00
  0.00000000E+00  0.00000000E+00  0.00000000E+00
  0.00000000E+00  0.00000000E+00  0.00000000E+00
  0.00000000E+00  0.00000000E+00  0.00000000E+00
  0.00000000E+00  0.00000000E+00  0.00000000E+00
  0.00000000E+00  0.00000000E+00  0.00000000E+00
  0.00000000E+00  0.00000000E+00  0.00000000E+00
  0.00000000E+00  0.00000000E+00  0.00000000E+00
  0.00000000E+00  0.00000000E+00  0.00000000E+00
  0.00000000E+00  0.00000000E+00  0.00000000E+00
  0.00000000E+00  0.00000000E+00  0.00000000E+00
  0.00000000E+00  0.00000000E+00  0.00000000E+00
  0.00000000E+00  0.00000000E+00  0.00000000E+00
  0.00000000E+00  0.00000000E+00  0.00000000E+00
  0.00000000E+00  0.00000000E+00  0.00000000E+00
  0.00000000E+00  0.00000000E+00  0.00000000E+00
  0.00000000E+00  0.00000000E+00  0.00000000E+00
  0.00000000E+00  0.00000000E+00  0.00000000E+00
  0.00000000E+00  0.00000000E+00  0.00000000E+00
  0.00000000E+00  0.00000000E+00  0.00000000E+00
  0.00000000E+00  0.00000000E+00  0.00000000E+00
  0.00000000E+00  0.00000000E+00  0.00000000E+00
  0.00000000E+00  0.00000000E+00  0.00000000E+00
  0.00000000E+00  0.00000000E+00  0.00000000E+00
  0.00000000E+00  0.00000000E+00  0.00000000E+00
  0.00000000E+00  0.00000000E+00  0.00000000E+00
  0.00000000E+00  0.00000000E+00  0.00000000E+00
  0.00000000E+00  0.00000000E+00  0.00000000E+00
  0.00000000E+00  0.00000000E+00  0.00000000E+00
  0.00000000E+00  0.00000000E+00  0.00000000E+00
  0.00000000E+00  0.00000000E+00  0.00000000E+00
  0.00000000E+00  0.00000000E+00  0.00000000E+00
  0.00000000E+00  0.00000000E+00  0.00000000E+00
  0.00000000E+00  0.00000000E+00  0.00000000E+00
  0.00000000E+00  0.00000000E+00  0.00000000E+00
  0.00000000E+00  0.00000000E+00  0.00000000E+00
  0.00000000E+00  0.00000000E+00  0.00000000E+00
  0.00000000E+00  0.00000000E+00  0.00000000E+00
  0.00000000E+00  0.00000000E+00  0.00000000E+00
  0.00000000E+00  0.00000000E+00  0.00000000E+00
  0.00000000E+00  0.00000000E+00  0.00000000E+00
  0.00000000E+00  0.00000000E+00  0.00000000E+00
  0.00000000E+00  0.00000000E+00  0.00000000E+00
  0.00000000E+00  0.00000000E+00  0.00000000E+00
  0.00000000E+00  0.00000000E+00  0.00000000E+00
  0.00000000E+00  0.00000000E+00  0.00000000E+00
  0.00000000E+00  0.00000000E+00  0.00000000E+00
  0.00000000E+00  0.00000000E+00  0.00000000E+00
  0.00000000E+00  0.00000000E+00  0.00000000E+00
  0.00000000E+00  0.00000000E+00  0.00000000E+00
  0.00000000E+00  0.00000000E+00  0.00000000E+00
  0.00000000E+00  0.00000000E+00  0.00000000E+00
  0.00000000E+00  0.00000000E+00  0.00000000E+00
  0.00000000E+00  0.00000000E+00  0.00000000E+00
  0.00000000E+00  0.00000000E+00  0.00000000E+00
  0.00000000E+00  0.00000000E+00  0.00000000E+00
  0.00000000E+00  0.00000000E+00  0.00000000E+00
  0.00000000E+00  0.00000000E+00  0.00000000E+00
  0.00000000E+00  0.00000000E+00  0.00000000E+00
  0.00000000E+00  0.00000000E+00  0.00000000E+00
  0.00000000E+00  0.00000000E+00  0.00000000E+00
  0.00000000E+00  0.00000000E+00  0.00000000E+00
  0.00000000E+00  0.00000000E+00  0.00000000E+00
  0.00000000E+00  0.00000000E+00  0.00000000E+00
  0.00000000E+00  0.00000000E+00  0.00000000E+00
  0.00000000E+00  0.00000000E+00  0.00000000E+00
  0.00000000E+00  0.00000000E+00  0.00000000E+00
  0.00000000E+00  0.00000000E+00  0.00000000E+00
  0.00000000E+00  0.00000000E+00  0.00000000E+00
  0.00000000E+00  0.00000000E+00  0.00000000E+00
  0.00000000E+00  0.00000000E+00  0.00000000E+00
  0.00000000E+00  0.00000000E+00  0.00000000E+00
  0.00000000E+00  0.00000000E+00  0.00000000E+00
  0.00000000E+00  0.00000000E+00  0.00000000E+00
  0.00000000E+00  0.00000000E+00  0.00000000E+00
  0.00000000E+00  0.00000000E+00  0.00000000E+00
  0.00000000E+00  0.00000000E+00  0.00000000E+00
  0.00000000E+00  0.00000000E+00  0.00000000E+00
  0.00000000E+00  0.00000000E+00  0.00000000E+00
  0.00000000E+00  0.00000000E+00  0.00000000E+00
  0.00000000E+00  0.00000000E+00  0.00000000E+00
