 C 
 1.0000000000000000
    28.0500000000000007    0.0000000000000000    0.0000000000000000
     0.0000000000000000    8.0999999999999996    0.0000000000000000
     0.0000000000000000    0.0000000000000000   33.5000000000000000
 C  
  92
Cartesian
  0.2418990000000000  0.8102070000000000 16.8204999999999991
  0.2568710000000000  2.1888299999999998 16.7820999999999998
  1.3501500000000000  0.1885680000000000 17.3377000000000017
  1.3492900000000001  2.8434900000000001 17.3582000000000001
  2.5645500000000001  0.8017930000000000 17.6822000000000017
  2.5726900000000001  2.2074199999999999 17.6159999999999997
  3.7631199999999998  0.1530040000000000 18.0199999999999996
  3.7526700000000002  2.8707600000000002 17.8642000000000003
  5.0131899999999998  0.8220200000000000 18.1050000000000004
  4.9697699999999996  2.1811199999999999 18.0359000000000016
  6.2270799999999999  0.1312700000000000 18.2286000000000001
  6.1986200000000000  2.8593700000000002 18.1370000000000005
  7.4578600000000002  0.8385740000000000 18.0516000000000005
  7.4174499999999997  2.2124700000000002 17.9505000000000017
  8.7047600000000003  0.2194740000000000 18.0351999999999997
  8.6892899999999997  2.8950000000000000 17.8954999999999984
  9.9228199999999998  0.8663830000000000 17.7214999999999989
  9.8942999999999994  2.2449200000000000 17.6590999999999987
 11.1384000000000007  0.2617290000000000 17.4276000000000018
 11.1354000000000006  2.9495700000000000 17.4023000000000003
 12.2548999999999992  0.8988670000000000 17.0276999999999994
 12.2797999999999998  2.2731699999999999 16.9360999999999997
 13.4656000000000002  0.1816080000000000 16.7092999999999989
 13.5103000000000009  2.8529700000000000 16.7295000000000016
 14.6579999999999995  0.8515450000000000 16.2623999999999995
 14.7141000000000002  2.1838000000000002 16.3368000000000002
 15.8330000000000002  0.1954790000000000 15.8068000000000008
 15.9518000000000004  2.8750100000000001 16.0321999999999996
 17.0094999999999992  0.7715490000000000 15.3754000000000008
 17.1294000000000004  2.1996699999999998 15.5135000000000005
 18.2487999999999992  0.1757810000000000 15.1224000000000007
 18.3506000000000000  2.8635799999999998 15.3613999999999997
 19.5234999999999985  0.8210780000000000 14.9034999999999993
 19.5698000000000008  2.1807699999999999 15.0830000000000002
 20.8394000000000013  0.1265320000000000 14.9068000000000005
 20.8570999999999991  2.8143400000000001 15.2370999999999999
 22.1238999999999990  0.7900090000000000 14.9792000000000005
 22.1170000000000009  2.1335000000000002 15.0401000000000007
 23.3676999999999992  0.1448400000000000 15.2390000000000008
 23.3246000000000002  2.8239700000000001 15.3046000000000006
 24.5779999999999994  0.8205310000000000 15.4334000000000007
 24.5568999999999988  2.2122899999999999 15.5487000000000002
 25.7897999999999996  0.1799360000000000 15.8992000000000004
 25.7652999999999999  2.8703400000000001 15.9970999999999997
 27.0066999999999986  0.7852030000000000 16.1308000000000007
 27.0186999999999991  2.2583000000000002 16.1631000000000000
  0.0775740000000000  4.9393399999999996 17.4470999999999989
  0.0353817000000000  6.3467599999999997 17.3868000000000009
  1.2320100000000000  4.2469599999999996 17.7414999999999985
  1.2260300000000000  6.9725500000000000 17.7504999999999988
  2.4047600000000000  4.8885300000000003 18.0921999999999983
  2.4044800000000000  6.2616199999999997 18.1994000000000007
  3.7136300000000002  4.2369800000000000 18.1995000000000005
  3.7001499999999998  6.8624499999999999 18.2185999999999986
  4.9491300000000003  4.8619000000000003 18.4540000000000006
  4.9158099999999996  6.2603400000000002 18.4767000000000010
  6.2462799999999996  4.2288899999999998 18.3153000000000006
  6.1990100000000004  6.9106199999999998 18.5048999999999992
  7.4974299999999996  4.8547599999999997 18.3815999999999988
  7.4654800000000003  6.2324700000000002 18.4785000000000004
  8.7446099999999998  4.2354000000000003 18.1991000000000014
  8.6699500000000000  6.9398600000000004 18.2795999999999985
  9.9651700000000005  4.9395100000000003 18.0665000000000013
  9.9452400000000001  6.2932100000000002 18.0425000000000004
 11.1667000000000005  4.2652400000000004 17.6688000000000009
 11.1339000000000006  6.9366599999999998 17.6027999999999984
 12.4182000000000006  4.9130700000000003 17.3729000000000013
 12.3885000000000005  6.2970199999999998 17.3889999999999993
 13.5084000000000000  4.2326600000000001 16.8534000000000006
 13.5283999999999995  6.9480899999999997 16.8581000000000003
 14.7705000000000002  4.8918799999999996 16.6111000000000004
 14.8023000000000007  6.2577499999999997 16.5249999999999986
 15.9893999999999998  4.2328500000000000 16.2445999999999984
 15.8894000000000002  6.9552399999999999 16.0579000000000001
 17.1957999999999984  4.9108799999999997 15.9130000000000003
 17.1524999999999999  6.2554600000000002 15.8063000000000002
 18.3810000000000002  4.2485299999999997 15.5351999999999997
 18.3294999999999995  6.9382000000000001 15.2866999999999997
 19.6353000000000009  4.8898099999999998 15.3054000000000006
 19.5687999999999995  6.2676900000000000 15.1969999999999992
 20.8916000000000004  4.1532400000000003 15.3026000000000000
 20.8453000000000017  6.9152899999999997 15.1485000000000003
 22.0914000000000001  4.8505300000000000 15.3408999999999995
 22.0853999999999999  6.2523900000000001 15.3750999999999998
 23.3261000000000003  4.2131400000000001 15.4198000000000004
 23.3083999999999989  6.8913599999999997 15.5105000000000004
 24.5587000000000018  4.8603800000000001 15.7260000000000009
 24.5329000000000015  6.2867199999999999 15.7905999999999995
 25.7659999999999982  4.2511900000000002 16.1276000000000010
 25.7374000000000009  6.9299799999999996 16.0834000000000010
 26.8258000000000010  4.9164700000000003 16.7867999999999995
 26.8292999999999999  6.2954900000000000 16.7166999999999994
