 C                                      
    1.000000000000000     
    28.0500000000000007    0.0000000000000000    0.0000000000000000
     0.0000000000000000    8.0999999999999996    0.0000000000000000
     0.0000000000000000    0.0000000000000000   33.5000000000000000
   C 
    92
Direct
     0.0052735828877033    0.1046346913580223    0.4442716417910475
     0.0061219607843128    0.2762950617283977    0.4452447761194023
     0.0477893048128308    0.0242064197530851    0.4554716417910427
     0.0503957219251348    0.3504444444444417    0.4508208955223907
     0.0920705882352948    0.1018395061728370    0.4626417910447742
     0.0944684491978620    0.2693543209876523    0.4592059701492559
     0.1342078431372542    0.0220987654320979    0.4755671641791039
     0.1392698752228156    0.3476740740740709    0.4680895522388084
     0.1774417112299460    0.0994303703703707    0.4884835820895503
     0.1811493761140852    0.2656123456790098    0.4813402985074617
     0.2207237076648809    0.0200082716049366    0.4984358208955229
     0.2214499108734387    0.3485716049382717    0.4969582089552205
     0.2618873440285228    0.0988655555555553    0.5103104477611922
     0.2655682709447404    0.2732370370370347    0.5098746268656740
     0.3065315508021413    0.0162462962962948    0.5204208955223848
     0.3088206773618509    0.3559419753086388    0.5149522388059680
     0.3510919786096238    0.1014911111111090    0.5249522388059731
     0.3517344028520526    0.2718234567901234    0.5242477611940330
     0.3942139037433137    0.0189074074074043    0.5342328358208945
     0.3944812834224578    0.3517802469135773    0.5333134328358184
     0.4400392156862765    0.1025033333333312    0.5355074626865672
     0.4385276292335121    0.2720987654320979    0.5361970149253708
     0.4843672014260250    0.0236653086419736    0.5421313432835788
     0.4836470588235287    0.3580851851851818    0.5453611940298515
     0.5291443850267399    0.1092395061728411    0.5433164179104466
     0.5288983957219244    0.2781333333333365    0.5495731343283552
     0.5725347593582910    0.0266711111111135    0.5397582089552273
     0.5739786096256694    0.3565777777777797    0.5508000000000024
     0.6163351158645298    0.1054900000000032    0.5339552238805965
     0.6180819964349382    0.2696716049382744    0.5415582089552231
     0.6593368983957220    0.0297009876543228    0.5237880597014950
     0.6601639928698759    0.3553259259259249    0.5339074626865639
     0.7031657754010681    0.1100372839506178    0.5193641791044783
     0.7053618538324429    0.2784222222222255    0.5243940298507468
     0.7419928698752258    0.0231165432098734    0.5013253731343283
     0.7459286987522304    0.3576444444444462    0.5119373134328384
     0.7810017825311917    0.1051560493827139    0.4835044776119375
     0.7833868092691603    0.2746938271604904    0.4899552238805995
     0.8215080213903718    0.0220043209876550    0.4697373134328373
     0.8278859180035667    0.3540604938271628    0.4792835820895505
     0.8660926916221001    0.0984834567901203    0.4603731343283570
     0.8671657754010695    0.2708814814814815    0.4620417910447756
     0.9117219251336905    0.0145486419753098    0.4542507462686558
     0.9091800356506212    0.3532407407407376    0.4509552238805981
     0.9536434937611418    0.1004854320987647    0.4438447761194055
     0.9531978609625682    0.2718086419753121    0.4419074626865651
     0.0073107308377871    0.5994691358024724    0.4426507462686544
     0.0074290552584699    0.7770580246913568    0.4459522388059725
     0.0500652406417146    0.5232567901234546    0.4488925373134336
     0.0485340463458144    0.8577876543209868    0.4556716417910422
     0.0929515151515119    0.6013617283950623    0.4616776119402957
     0.0925582887700500    0.7711061728395094    0.4647731343283610
     0.1367147950089134    0.5168802469135798    0.4694597014925392
     0.1347130124777181    0.8581827160493845    0.4739731343283609
     0.1790980392156882    0.5998444444444431    0.4836507462686583
     0.1793711229946524    0.7677271604938269    0.4836238805970154
     0.2227761140819950    0.5215617283950635    0.4955582089552237
     0.2227033868092718    0.8495506172839526    0.4928358208955217
     0.2652641711229933    0.6028827160493861    0.5068268656716413
     0.2646980392156877    0.7704456790123473    0.5030238805970129
     0.3081336898395719    0.5235543209876568    0.5189432835820895
     0.3076406417112310    0.8507456790123484    0.5172089552238788
     0.3514609625668470    0.6025703703703726    0.5303522388059676
     0.3502388591800383    0.7697296296296301    0.5276805970149283
     0.3933404634581095    0.5201086419753054    0.5386149253731318
     0.3939500891265624    0.8514716049382685    0.5356388059701516
     0.4368520499108755    0.6052925925925905    0.5480119402985082
     0.4382495543672036    0.7713555555555587    0.5427402985074607
     0.4828163992869889    0.5276851851851845    0.5492417910447784
     0.4830944741532974    0.8570222222222199    0.5457850746268633
     0.5280249554367202    0.6100469135802484    0.5499402985074653
     0.5276434937611398    0.7760975308641989    0.5443731343283602
     0.5735365418894816    0.5299444444444461    0.5523402985074597
     0.5715686274509792    0.8617135802469136    0.5405970149253747
     0.6169055258467040    0.6111037037037050    0.5429910447761159
     0.6164527629233518    0.7760592592592559    0.5396955223880582
     0.6611016042780733    0.5206604938271582    0.5334328358208964
     0.6600677361853826    0.8624259259259262    0.5281970149253752
     0.7026559714795013    0.6103629629629665    0.5217104477611940
     0.7012335115864516    0.7742530864197548    0.5156477611940318
     0.7437682709447415    0.5245172839506154    0.5092865671641817
     0.7414081996434945    0.8544765432098771    0.4984149253731331
     0.7861925133689809    0.6039024691358037    0.4940507462686554
     0.7840606060606063    0.7693506172839477    0.4879014925373113
     0.8281069518716606    0.5230012345679000    0.4805194029850739
     0.8241711229946489    0.8494024691358035    0.4723552238805979
     0.8672691622103414    0.6025641975308673    0.4642119402985045
     0.8686060606060622    0.7713641975308647    0.4661283582089553
     0.9123529411764721    0.5236802469135782    0.4520746268656737
     0.9119180035650629    0.8516518518518552    0.4585701492537311
     0.9555222816399294    0.6017691358024706    0.4466388059701458
     0.9541711229946515    0.7757790123456800    0.4505820895522419
 
  0.00000000E+00  0.00000000E+00  0.00000000E+00
  0.00000000E+00  0.00000000E+00  0.00000000E+00
  0.00000000E+00  0.00000000E+00  0.00000000E+00
  0.00000000E+00  0.00000000E+00  0.00000000E+00
  0.00000000E+00  0.00000000E+00  0.00000000E+00
  0.00000000E+00  0.00000000E+00  0.00000000E+00
  0.00000000E+00  0.00000000E+00  0.00000000E+00
  0.00000000E+00  0.00000000E+00  0.00000000E+00
  0.00000000E+00  0.00000000E+00  0.00000000E+00
  0.00000000E+00  0.00000000E+00  0.00000000E+00
  0.00000000E+00  0.00000000E+00  0.00000000E+00
  0.00000000E+00  0.00000000E+00  0.00000000E+00
  0.00000000E+00  0.00000000E+00  0.00000000E+00
  0.00000000E+00  0.00000000E+00  0.00000000E+00
  0.00000000E+00  0.00000000E+00  0.00000000E+00
  0.00000000E+00  0.00000000E+00  0.00000000E+00
  0.00000000E+00  0.00000000E+00  0.00000000E+00
  0.00000000E+00  0.00000000E+00  0.00000000E+00
  0.00000000E+00  0.00000000E+00  0.00000000E+00
  0.00000000E+00  0.00000000E+00  0.00000000E+00
  0.00000000E+00  0.00000000E+00  0.00000000E+00
  0.00000000E+00  0.00000000E+00  0.00000000E+00
  0.00000000E+00  0.00000000E+00  0.00000000E+00
  0.00000000E+00  0.00000000E+00  0.00000000E+00
  0.00000000E+00  0.00000000E+00  0.00000000E+00
  0.00000000E+00  0.00000000E+00  0.00000000E+00
  0.00000000E+00  0.00000000E+00  0.00000000E+00
  0.00000000E+00  0.00000000E+00  0.00000000E+00
  0.00000000E+00  0.00000000E+00  0.00000000E+00
  0.00000000E+00  0.00000000E+00  0.00000000E+00
  0.00000000E+00  0.00000000E+00  0.00000000E+00
  0.00000000E+00  0.00000000E+00  0.00000000E+00
  0.00000000E+00  0.00000000E+00  0.00000000E+00
  0.00000000E+00  0.00000000E+00  0.00000000E+00
  0.00000000E+00  0.00000000E+00  0.00000000E+00
  0.00000000E+00  0.00000000E+00  0.00000000E+00
  0.00000000E+00  0.00000000E+00  0.00000000E+00
  0.00000000E+00  0.00000000E+00  0.00000000E+00
  0.00000000E+00  0.00000000E+00  0.00000000E+00
  0.00000000E+00  0.00000000E+00  0.00000000E+00
  0.00000000E+00  0.00000000E+00  0.00000000E+00
  0.00000000E+00  0.00000000E+00  0.00000000E+00
  0.00000000E+00  0.00000000E+00  0.00000000E+00
  0.00000000E+00  0.00000000E+00  0.00000000E+00
  0.00000000E+00  0.00000000E+00  0.00000000E+00
  0.00000000E+00  0.00000000E+00  0.00000000E+00
  0.00000000E+00  0.00000000E+00  0.00000000E+00
  0.00000000E+00  0.00000000E+00  0.00000000E+00
  0.00000000E+00  0.00000000E+00  0.00000000E+00
  0.00000000E+00  0.00000000E+00  0.00000000E+00
  0.00000000E+00  0.00000000E+00  0.00000000E+00
  0.00000000E+00  0.00000000E+00  0.00000000E+00
  0.00000000E+00  0.00000000E+00  0.00000000E+00
  0.00000000E+00  0.00000000E+00  0.00000000E+00
  0.00000000E+00  0.00000000E+00  0.00000000E+00
  0.00000000E+00  0.00000000E+00  0.00000000E+00
  0.00000000E+00  0.00000000E+00  0.00000000E+00
  0.00000000E+00  0.00000000E+00  0.00000000E+00
  0.00000000E+00  0.00000000E+00  0.00000000E+00
  0.00000000E+00  0.00000000E+00  0.00000000E+00
  0.00000000E+00  0.00000000E+00  0.00000000E+00
  0.00000000E+00  0.00000000E+00  0.00000000E+00
  0.00000000E+00  0.00000000E+00  0.00000000E+00
  0.00000000E+00  0.00000000E+00  0.00000000E+00
  0.00000000E+00  0.00000000E+00  0.00000000E+00
  0.00000000E+00  0.00000000E+00  0.00000000E+00
  0.00000000E+00  0.00000000E+00  0.00000000E+00
  0.00000000E+00  0.00000000E+00  0.00000000E+00
  0.00000000E+00  0.00000000E+00  0.00000000E+00
  0.00000000E+00  0.00000000E+00  0.00000000E+00
  0.00000000E+00  0.00000000E+00  0.00000000E+00
  0.00000000E+00  0.00000000E+00  0.00000000E+00
  0.00000000E+00  0.00000000E+00  0.00000000E+00
  0.00000000E+00  0.00000000E+00  0.00000000E+00
  0.00000000E+00  0.00000000E+00  0.00000000E+00
  0.00000000E+00  0.00000000E+00  0.00000000E+00
  0.00000000E+00  0.00000000E+00  0.00000000E+00
  0.00000000E+00  0.00000000E+00  0.00000000E+00
  0.00000000E+00  0.00000000E+00  0.00000000E+00
  0.00000000E+00  0.00000000E+00  0.00000000E+00
  0.00000000E+00  0.00000000E+00  0.00000000E+00
  0.00000000E+00  0.00000000E+00  0.00000000E+00
  0.00000000E+00  0.00000000E+00  0.00000000E+00
  0.00000000E+00  0.00000000E+00  0.00000000E+00
  0.00000000E+00  0.00000000E+00  0.00000000E+00
  0.00000000E+00  0.00000000E+00  0.00000000E+00
  0.00000000E+00  0.00000000E+00  0.00000000E+00
  0.00000000E+00  0.00000000E+00  0.00000000E+00
  0.00000000E+00  0.00000000E+00  0.00000000E+00
  0.00000000E+00  0.00000000E+00  0.00000000E+00
  0.00000000E+00  0.00000000E+00  0.00000000E+00
  0.00000000E+00  0.00000000E+00  0.00000000E+00
