 C 
 1.0000000000000000
    28.0500000000000007    0.0000000000000000    0.0000000000000000
     0.0000000000000000    8.0999999999999996    0.0000000000000000
     0.0000000000000000    0.0000000000000000   33.5000000000000000
 C  
  92
Cartesian
  0.4387030000000000  0.9461910000000000 14.7562999999999995
  0.4776210000000000  2.3463500000000002 14.8926999999999996
  1.6400300000000001  0.2991810000000000 14.4793000000000003
  1.6683600000000001  3.0084700000000000 14.7317000000000000
  2.9468399999999999  1.0060700000000000 14.6059999999999999
  2.9119500000000000  2.3981100000000000 14.7216000000000005
  4.1952600000000002  0.3397710000000000 14.6743000000000006
  4.1663300000000003  3.0657299999999998 14.9518000000000004
  5.4719300000000004  1.0226999999999999 14.7741000000000007
  5.3807000000000000  2.3889600000000000 15.0573999999999995
  6.6702500000000002  0.3605180000000000 15.0581999999999994
  6.6052999999999997  2.9765400000000000 15.4077000000000002
  7.8963000000000001  0.9851640000000000 15.4044000000000008
  7.8097500000000002  2.3176199999999998 15.6866000000000003
  9.1429500000000008  0.3304300000000000 15.6072000000000006
  9.0164799999999996  2.9690300000000001 16.1356999999999999
 10.3062000000000005  0.9746800000000000 15.9715000000000007
 10.2527000000000008  2.3019300000000000 16.3491999999999997
 11.4993999999999996  0.2983590000000000 16.3249999999999993
 11.4077000000000002  2.9646300000000001 16.7929999999999993
 12.6689000000000007  0.9400920000000000 16.8207999999999984
 12.6225000000000005  2.3036400000000001 17.0511000000000017
 13.9054000000000002  0.3007500000000000 16.9765000000000015
 13.8062000000000005  2.9485600000000001 17.3338999999999999
 15.1088000000000005  0.9430660000000000 17.4293000000000013
 15.0205000000000002  2.2745199999999999 17.6777000000000015
 16.3492999999999995  0.2333670000000000 17.5760000000000005
 16.2491999999999983  2.9979600000000000 17.7965000000000018
 17.5400999999999989  0.9443350000000000 17.6658000000000008
 17.4858000000000011  2.3231600000000001 17.7962999999999987
 18.7852999999999994  0.3243970000000000 17.4573000000000000
 18.7881000000000000  2.9681000000000002 17.6681999999999988
 20.0060000000000002  0.9958360000000001 17.2948999999999984
 19.9817999999999998  2.3485299999999998 17.3980999999999995
 21.1342999999999996  0.3059540000000000 16.8959000000000010
 21.1661000000000001  2.9928400000000002 16.9662000000000006
 22.3956000000000017  0.9884210000000000 16.5716000000000001
 22.3826999999999998  2.3289200000000001 16.6636999999999986
 23.5640000000000001  0.3236720000000000 16.0852000000000004
 23.5681000000000012  3.0043899999999999 16.1995000000000005
 24.7899999999999991  0.9937870000000000 15.8422000000000001
 24.6942999999999984  2.3485999999999998 15.8839000000000006
 25.9541000000000004  0.2669510000000000 15.4006000000000007
 25.9111000000000011  3.0225200000000001 15.4651999999999994
 27.0992999999999995  0.9958200000000000 15.0472000000000001
 27.1086999999999989  2.3970300000000000 15.1605000000000008
  0.4491000000000000  5.0022599999999997 14.8282000000000007
  0.4704110000000000  6.3779300000000001 14.7112999999999996
  1.6629000000000000  4.3590400000000002 14.5761000000000003
  1.6804600000000001  7.0368800000000000 14.4179999999999993
  2.9079799999999998  5.0259799999999997 14.6483000000000008
  2.9487399999999999  6.3847100000000001 14.5012000000000008
  4.1648699999999996  4.4213699999999996 14.8786000000000005
  4.1743100000000002  7.0649899999999999 14.6571999999999996
  5.4118100000000000  5.0319000000000003 15.1038999999999994
  5.4022899999999998  6.4077799999999998 14.9961000000000002
  6.6087100000000003  4.3454600000000001 15.3613999999999997
  6.6401800000000000  7.0641900000000000 15.0566999999999993
  7.7797599999999996  4.9980200000000004 15.6423000000000005
  7.7801299999999998  6.4109299999999996 15.5280000000000005
  8.9778500000000001  4.3320800000000004 16.1496999999999993
  9.0687999999999995  7.0617599999999996 15.6829999999999998
 10.1557999999999993  5.0158600000000000 16.3834000000000017
 10.2470999999999997  6.3585099999999999 16.1567000000000007
 11.4047000000000001  4.3488300000000004 16.7796999999999983
 11.4763000000000002  7.0201500000000001 16.3355999999999995
 12.5999999999999996  5.0175500000000000 17.1436999999999991
 12.6553000000000004  6.3550599999999999 16.7623999999999995
 13.7634000000000007  4.3361099999999997 17.4729999999999990
 13.8484999999999996  7.0125799999999998 17.0443999999999996
 15.0289999999999999  4.9987399999999997 17.5356999999999985
 15.0739999999999998  6.3296200000000002 17.2637999999999998
 16.2122999999999990  4.3268000000000004 17.6598000000000006
 16.2714999999999996  6.9907500000000002 17.3648999999999987
 17.4773999999999994  4.9816000000000003 17.3931000000000004
 17.5255000000000010  6.3302699999999996 17.2598999999999982
 18.7112000000000016  4.3464299999999998 17.3866000000000014
 18.7116000000000007  7.0394699999999997 17.2463000000000015
 19.9100999999999999  4.9966799999999996 16.9981000000000009
 19.9490000000000016  6.3715200000000003 17.1356999999999999
 21.1506000000000007  4.3489399999999998 16.8183000000000007
 21.1664999999999992  7.0557999999999996 16.7679000000000009
 22.2742000000000004  5.0314899999999998 16.3339999999999996
 22.2835000000000001  6.4093600000000004 16.2554000000000016
 23.4498999999999995  4.3877499999999996 15.9857999999999993
 23.4546999999999990  7.0444300000000002 15.8724000000000007
 24.6043999999999983  5.0123699999999998 15.5443999999999996
 24.6186000000000007  6.3986099999999997 15.4290000000000003
 25.8655000000000008  4.3446100000000003 15.3117999999999999
 25.8853000000000009  7.0184300000000004 15.2605000000000004
 27.0690999999999988  5.0004400000000002 14.9220000000000006
 27.0524999999999984  6.4036299999999997 14.8168000000000006
