 C 
 1.0000000000000000
    28.0500000000000007    0.0000000000000000    0.0000000000000000
     0.0000000000000000    8.0999999999999996    0.0000000000000000
     0.0000000000000000    0.0000000000000000   33.5000000000000000
 C  
  92
Cartesian
 20.0494999999999983  4.2271299999999998 -603.8540000000000418
 20.0309999999999988  5.5518200000000002 -604.1589999999999918
 21.2376000000000005  3.5769099999999998 -603.8790000000000191
 21.2086000000000006  6.2789000000000001 -604.2119999999999891
 22.4617000000000004  4.2350500000000002 -604.2150000000000318
 22.4551000000000016  5.6095600000000001 -604.3700000000000045
 23.7198999999999991  3.5823800000000001 -604.2150000000000318
 23.6912999999999982  6.2814600000000000 -604.4489999999999554
 24.8939999999999984  4.2293700000000003 -604.6240000000000236
 24.8750000000000000  5.5901899999999998 -604.6929999999999836
 26.1115999999999993  3.5785800000000001 -604.8999999999999773
 26.1027999999999984  6.2423000000000002 -604.9429999999999836
 27.2810999999999986  4.2211600000000002 -605.4180000000000064
 27.3016000000000005  5.5937799999999998 -605.4239999999999782
  0.4566920000000000  3.5304500000000001 -605.6570000000000391
  0.4567640000000000  6.2643000000000004 -605.7519999999999527
  1.6039699999999999  4.2318199999999999 -606.2169999999999845
  1.6141300000000001  5.5927499999999997 -606.2720000000000482
  2.8086799999999998  3.5782500000000002 -606.4320000000000164
  2.8517600000000001  6.2726699999999997 -606.4829999999999472
  4.0663299999999998  4.2110200000000004 -606.7340000000000373
  4.0851199999999999  5.5973199999999999 -606.7930000000000064
  5.3388000000000000  3.5671200000000001 -606.9199999999999591
  5.2875800000000002  6.2871100000000002 -606.9389999999999645
  6.5624799999999999  4.2417100000000003 -606.9980000000000473
  6.5413300000000003  5.6256800000000000 -607.0700000000000500
  7.8444700000000003  3.6089799999999999 -606.9809999999999945
  7.8339100000000004  6.2711300000000003 -607.0430000000000064
  9.0919399999999992  4.2337600000000002 -606.8849999999999909
  9.0793999999999997  5.6210100000000001 -606.8819999999999482
 10.3040000000000003  3.5809299999999999 -606.5629999999999882
 10.2834000000000003  6.3125600000000004 -606.6259999999999764
 11.5424000000000007  4.2662899999999997 -606.3110000000000355
 11.5256000000000007  5.6237800000000000 -606.3690000000000282
 12.6592000000000002  3.5824699999999998 -605.8079999999999927
 12.7375000000000007  6.2885600000000004 -605.9750000000000227
 13.8346000000000000  4.2154100000000003 -605.3880000000000337
 13.8947000000000003  5.6095899999999999 -605.5209999999999582
 14.9327000000000005  3.6079500000000002 -604.7169999999999845
 15.0401000000000007  6.2818800000000001 -605.0280000000000200
 16.1593000000000018  4.2732299999999999 -604.4070000000000391
 16.2228999999999992  5.6039700000000003 -604.6250000000000000
 17.3588999999999984  3.5931600000000001 -603.9819999999999709
 17.4440999999999988  6.3127399999999998 -604.4020000000000437
 18.5752999999999986  4.2627199999999998 -603.7949999999999591
 18.6188000000000002  5.6447900000000004 -604.0599999999999454
 20.0198999999999998  0.2195560000000000 -603.9039999999999964
 20.0259999999999998  1.5925400000000001 -603.6620000000000346
 21.1917000000000009  7.6398200000000003 -603.9679999999999609
 21.2676000000000016  2.2039100000000000 -603.7190000000000509
 22.4847000000000001  0.1799890000000000 -603.8740000000000236
 22.5125999999999991  1.5611900000000001 -603.8300000000000409
 23.7439999999999998  7.6196400000000004 -604.1299999999999955
 23.7432000000000016  2.2437999999999998 -603.9959999999999809
 24.9878999999999998  0.1782450000000000 -604.3189999999999600
 24.9999000000000002  1.5543300000000000 -604.2709999999999582
 26.1777000000000015  7.5895200000000003 -604.6970000000000027
 26.1772999999999989  2.2290299999999998 -604.6380000000000337
 27.4005000000000010  0.1653150000000000 -604.9299999999999500
 27.4265000000000008  1.5536900000000000 -604.8590000000000373
  0.4868330000000000  7.6194199999999999 -605.5280000000000200
  0.5058990000000000  2.2145100000000002 -605.3949999999999818
  1.6683800000000000  0.2049160000000000 -605.9470000000000027
  1.7239000000000000  1.5670599999999999 -605.7630000000000337
  2.8469199999999999  7.6417200000000003 -606.3269999999999982
  2.9130600000000002  2.2110900000000000 -606.2229999999999563
  4.0900100000000004  0.1764730000000000 -606.4930000000000518
  4.1022299999999996  1.5698700000000001 -606.4719999999999800
  5.3049799999999996  7.6361600000000003 -606.8070000000000164
  5.3186700000000000  2.2106400000000002 -606.7490000000000236
  6.5778499999999998  0.2062120000000000 -606.9149999999999636
  6.5685200000000004  1.5895999999999999 -606.8830000000000382
  7.7881099999999996  7.6382099999999999 -606.9289999999999736
  7.8143599999999998  2.2280899999999999 -606.9840000000000373
  9.0155499999999993  0.1883670000000000 -606.7140000000000555
  9.0137000000000000  1.5692699999999999 -606.7160000000000082
 10.2592999999999996  7.6421700000000001 -606.5140000000000100
 10.2443000000000008  2.2429299999999999 -606.3590000000000373
 11.4597999999999995  0.2387100000000000 -606.1290000000000191
 11.4198000000000004  1.5964499999999999 -605.9080000000000155
 12.6639999999999997  7.6449600000000002 -605.8469999999999800
 12.5863999999999994  2.2618499999999999 -605.4819999999999709
 13.8226999999999993  0.2143970000000000 -605.3379999999999654
 13.7521000000000004  1.5848899999999999 -605.0960000000000036
 14.9997000000000007  7.6370600000000000 -604.9589999999999463
 14.9192000000000000  2.2395299999999998 -604.6259999999999764
 16.1954999999999991  0.2125020000000000 -604.6130000000000564
 16.1173000000000002  1.5394000000000001 -604.3279999999999745
 17.4010999999999996  7.6625100000000002 -604.3769999999999527
 17.3277000000000001  2.2217199999999999 -603.9339999999999691
 18.5705999999999989  0.1842760000000000 -603.9410000000000309
 18.5544000000000011  1.5791299999999999 -603.7259999999999991
