 C                                      
    1.000000000000000     
    28.0500000000000007    0.0000000000000000    0.0000000000000000
     0.0000000000000000    8.0999999999999996    0.0000000000000000
     0.0000000000000000    0.0000000000000000   33.5000000000000000
   C 
    92
Direct
     0.0037785026737964    0.1027960493827180    0.5513223880597025
     0.0048887344028543    0.2734876543209879    0.5468238805970174
     0.0483529411764678    0.0269104938271596    0.5507671641791063
     0.0475262032085553    0.3618000000000023    0.5437044776119393
     0.0928784313725473    0.1132027160493863    0.5540686567164173
     0.0928117647058855    0.2811654320987671    0.5498149253731341
     0.1387012477718343    0.0314387654320996    0.5528328358208938
     0.1368606060606083    0.3659580246913592    0.5404746268656737
     0.1846862745098008    0.1086901234567890    0.5473522388059706
     0.1824791443850273    0.2797037037037029    0.5413194029850743
     0.2281714795008938    0.0262853086419739    0.5344417910447774
     0.2247818181818175    0.3588074074074044    0.5268358208955206
     0.2691807486631035    0.1116892592592578    0.5207701492537282
     0.2659176470588207    0.2758283950617297    0.5151134328358182
     0.3125811051693432    0.0211082716049376    0.5101820895522380
     0.3067778966131911    0.3550160493827192    0.4959044776119370
     0.3521597147950075    0.1021482716049391    0.4962328358208978
     0.3485529411764716    0.2699938271604907    0.4854238805970184
     0.3949875222816388    0.0171306172839536    0.4857283582089522
     0.3928128342245998    0.3493641975308677    0.4760089552238824
     0.4369269162210330    0.1057050617283934    0.4695791044776101
     0.4363030303030300    0.2683296296296263    0.4650626865671654
     0.4805882352941211    0.0246311111111126    0.4611671641791020
     0.4809090909090941    0.3488320987654348    0.4545880597014929
     0.5258110516934025    0.0973556790123453    0.4514328358208957
     0.5250552584670203    0.2682950617283950    0.4494656716417893
     0.5678039215686255    0.0195617283950611    0.4595522388059692
     0.5694759358288763    0.3539000000000030    0.4485253731343306
     0.6123565062388607    0.1042659259259224    0.4588059701492568
     0.6131122994652429    0.2701703703703728    0.4563283582089568
     0.6555579322638181    0.0167686419753110    0.4677074626865689
     0.6571657754010687    0.3498555555555569    0.4585313432835818
     0.6983386809269163    0.1009132098765448    0.4757104477611946
     0.7000677361853818    0.2695691358024703    0.4696716417910451
     0.7411016042780716    0.0212475308641942    0.4889761194029845
     0.7428877005347587    0.3553469135802487    0.4825999999999979
     0.7811301247771851    0.1016208641975282    0.5039223880596992
     0.7837219251336904    0.2746913580246897    0.4990238805970151
     0.8242566844919779    0.0237382716049410    0.5124507462686552
     0.8279500891265599    0.3538987654320991    0.5044507462686596
     0.8673547237076633    0.0985102469135768    0.5208119402985076
     0.8702709447415344    0.2696753086419719    0.5160179104477578
     0.9112513368983954    0.0148593827160468    0.5299761194029884
     0.9150374331550779    0.3467728395061727    0.5196835820895558
     0.9523137254901997    0.0972882716049384    0.5427582089552203
     0.9525989304812867    0.2724617283950650    0.5385641791044762
     0.0069110160427783    0.6080691358024666    0.5261134328358210
     0.0051292691622109    0.7869271604938248    0.5325134328358203
     0.0474777183600708    0.5247172839506149    0.5332119402985072
     0.0492948306595338    0.8585481481481452    0.5420149253731310
     0.0916524064171114    0.6185333333333318    0.5359194029850727
     0.0933814616755768    0.7766913580246921    0.5443462686567173
     0.1349718360071321    0.5316024691358052    0.5318358208955232
     0.1391204991087349    0.8613419753086404    0.5464417910447779
     0.1807183600713032    0.6145185185185156    0.5319074626865685
     0.1820096256684494    0.7812555555555534    0.5378507462686599
     0.2221778966131893    0.5269345679012361    0.5219611940298492
     0.2261654188948299    0.8610333333333315    0.5307910447761159
     0.2659294117647093    0.6104148148148170    0.5100537313432838
     0.2695771836007097    0.7774679012345658    0.5165223880596983
     0.3062627450980386    0.5198740740740746    0.4974238805970117
     0.3130484848484869    0.8508432098765439    0.5078776119403017
     0.3498609625668436    0.6024580246913587    0.4864119402985096
     0.3532477718360099    0.7682358024691354    0.4937761194029875
     0.3928342245989285    0.5214246913580212    0.4763074626865702
     0.3961212121212156    0.8494938271604937    0.4841313432835790
     0.4367344028520534    0.6013740740740730    0.4671999999999983
     0.4395971479500886    0.7682604938271638    0.4725014925373117
     0.4789090909090916    0.5225234567901254    0.4557731343283606
     0.4810017825311945    0.8577666666666701    0.4670805970149274
     0.5237575757575783    0.5990580246913595    0.4544089552238830
     0.5244206773618529    0.7635308641975342    0.4612865671641799
     0.5697183600712989    0.5219728395061765    0.4479402985074614
     0.5686131907308365    0.8427790123456802    0.4646746268656727
     0.6137575757575746    0.6008987654320990    0.4536268656716445
     0.6125739750445618    0.7616716049382717    0.4657104477611966
     0.6586844919786117    0.5165604938271571    0.4549701492537324
     0.6560142602495560    0.8474395061728401    0.4700656716417910
     0.7013119429590020    0.6026901234567887    0.4648149253731333
     0.7017540106951898    0.7700716049382734    0.4719582089552219
     0.7441960784313721    0.5220222222222191    0.4755671641791039
     0.7444812834224592    0.8566555555555553    0.4814238805970135
     0.7901604278074856    0.6007234567901207    0.4817134328358179
     0.7881782531194261    0.7702506172839492    0.4870537313432806
     0.8303315508021356    0.5196901234567903    0.4962059701492549
     0.8264099821746882    0.8525061728395045    0.5048447761194055
     0.8740713012477741    0.6011888888888919    0.5029582089552207
     0.8712727272727250    0.7691234567901262    0.5092417910447793
     0.9168841354723725    0.5140506172839494    0.5124149253731360
     0.9140285204991088    0.8543666666666638    0.5197641791044774
     0.9596078431372561    0.5968407407407383    0.5170865671641778
     0.9572905525846735    0.7760987654320957    0.5214328358208959
 
  0.00000000E+00  0.00000000E+00  0.00000000E+00
  0.00000000E+00  0.00000000E+00  0.00000000E+00
  0.00000000E+00  0.00000000E+00  0.00000000E+00
  0.00000000E+00  0.00000000E+00  0.00000000E+00
  0.00000000E+00  0.00000000E+00  0.00000000E+00
  0.00000000E+00  0.00000000E+00  0.00000000E+00
  0.00000000E+00  0.00000000E+00  0.00000000E+00
  0.00000000E+00  0.00000000E+00  0.00000000E+00
  0.00000000E+00  0.00000000E+00  0.00000000E+00
  0.00000000E+00  0.00000000E+00  0.00000000E+00
  0.00000000E+00  0.00000000E+00  0.00000000E+00
  0.00000000E+00  0.00000000E+00  0.00000000E+00
  0.00000000E+00  0.00000000E+00  0.00000000E+00
  0.00000000E+00  0.00000000E+00  0.00000000E+00
  0.00000000E+00  0.00000000E+00  0.00000000E+00
  0.00000000E+00  0.00000000E+00  0.00000000E+00
  0.00000000E+00  0.00000000E+00  0.00000000E+00
  0.00000000E+00  0.00000000E+00  0.00000000E+00
  0.00000000E+00  0.00000000E+00  0.00000000E+00
  0.00000000E+00  0.00000000E+00  0.00000000E+00
  0.00000000E+00  0.00000000E+00  0.00000000E+00
  0.00000000E+00  0.00000000E+00  0.00000000E+00
  0.00000000E+00  0.00000000E+00  0.00000000E+00
  0.00000000E+00  0.00000000E+00  0.00000000E+00
  0.00000000E+00  0.00000000E+00  0.00000000E+00
  0.00000000E+00  0.00000000E+00  0.00000000E+00
  0.00000000E+00  0.00000000E+00  0.00000000E+00
  0.00000000E+00  0.00000000E+00  0.00000000E+00
  0.00000000E+00  0.00000000E+00  0.00000000E+00
  0.00000000E+00  0.00000000E+00  0.00000000E+00
  0.00000000E+00  0.00000000E+00  0.00000000E+00
  0.00000000E+00  0.00000000E+00  0.00000000E+00
  0.00000000E+00  0.00000000E+00  0.00000000E+00
  0.00000000E+00  0.00000000E+00  0.00000000E+00
  0.00000000E+00  0.00000000E+00  0.00000000E+00
  0.00000000E+00  0.00000000E+00  0.00000000E+00
  0.00000000E+00  0.00000000E+00  0.00000000E+00
  0.00000000E+00  0.00000000E+00  0.00000000E+00
  0.00000000E+00  0.00000000E+00  0.00000000E+00
  0.00000000E+00  0.00000000E+00  0.00000000E+00
  0.00000000E+00  0.00000000E+00  0.00000000E+00
  0.00000000E+00  0.00000000E+00  0.00000000E+00
  0.00000000E+00  0.00000000E+00  0.00000000E+00
  0.00000000E+00  0.00000000E+00  0.00000000E+00
  0.00000000E+00  0.00000000E+00  0.00000000E+00
  0.00000000E+00  0.00000000E+00  0.00000000E+00
  0.00000000E+00  0.00000000E+00  0.00000000E+00
  0.00000000E+00  0.00000000E+00  0.00000000E+00
  0.00000000E+00  0.00000000E+00  0.00000000E+00
  0.00000000E+00  0.00000000E+00  0.00000000E+00
  0.00000000E+00  0.00000000E+00  0.00000000E+00
  0.00000000E+00  0.00000000E+00  0.00000000E+00
  0.00000000E+00  0.00000000E+00  0.00000000E+00
  0.00000000E+00  0.00000000E+00  0.00000000E+00
  0.00000000E+00  0.00000000E+00  0.00000000E+00
  0.00000000E+00  0.00000000E+00  0.00000000E+00
  0.00000000E+00  0.00000000E+00  0.00000000E+00
  0.00000000E+00  0.00000000E+00  0.00000000E+00
  0.00000000E+00  0.00000000E+00  0.00000000E+00
  0.00000000E+00  0.00000000E+00  0.00000000E+00
  0.00000000E+00  0.00000000E+00  0.00000000E+00
  0.00000000E+00  0.00000000E+00  0.00000000E+00
  0.00000000E+00  0.00000000E+00  0.00000000E+00
  0.00000000E+00  0.00000000E+00  0.00000000E+00
  0.00000000E+00  0.00000000E+00  0.00000000E+00
  0.00000000E+00  0.00000000E+00  0.00000000E+00
  0.00000000E+00  0.00000000E+00  0.00000000E+00
  0.00000000E+00  0.00000000E+00  0.00000000E+00
  0.00000000E+00  0.00000000E+00  0.00000000E+00
  0.00000000E+00  0.00000000E+00  0.00000000E+00
  0.00000000E+00  0.00000000E+00  0.00000000E+00
  0.00000000E+00  0.00000000E+00  0.00000000E+00
  0.00000000E+00  0.00000000E+00  0.00000000E+00
  0.00000000E+00  0.00000000E+00  0.00000000E+00
  0.00000000E+00  0.00000000E+00  0.00000000E+00
  0.00000000E+00  0.00000000E+00  0.00000000E+00
  0.00000000E+00  0.00000000E+00  0.00000000E+00
  0.00000000E+00  0.00000000E+00  0.00000000E+00
  0.00000000E+00  0.00000000E+00  0.00000000E+00
  0.00000000E+00  0.00000000E+00  0.00000000E+00
  0.00000000E+00  0.00000000E+00  0.00000000E+00
  0.00000000E+00  0.00000000E+00  0.00000000E+00
  0.00000000E+00  0.00000000E+00  0.00000000E+00
  0.00000000E+00  0.00000000E+00  0.00000000E+00
  0.00000000E+00  0.00000000E+00  0.00000000E+00
  0.00000000E+00  0.00000000E+00  0.00000000E+00
  0.00000000E+00  0.00000000E+00  0.00000000E+00
  0.00000000E+00  0.00000000E+00  0.00000000E+00
  0.00000000E+00  0.00000000E+00  0.00000000E+00
  0.00000000E+00  0.00000000E+00  0.00000000E+00
  0.00000000E+00  0.00000000E+00  0.00000000E+00
  0.00000000E+00  0.00000000E+00  0.00000000E+00
