 C 
 1.0000000000000000
    28.0500000000000007    0.0000000000000000    0.0000000000000000
     0.0000000000000000    8.0999999999999996    0.0000000000000000
     0.0000000000000000    0.0000000000000000   33.5000000000000000
 C  
  92
Cartesian
  0.1059870000000000  0.8326480000000001 18.4693000000000005
  0.1371290000000000  2.2152500000000002 18.3186000000000000
  1.3563000000000001  0.2179750000000000 18.4507000000000012
  1.3331100000000000  2.9305800000000000 18.2140999999999984
  2.6052399999999998  0.9169420000000000 18.5612999999999992
  2.6033700000000000  2.2774399999999999 18.4188000000000009
  3.8905699999999999  0.2546540000000000 18.5198999999999998
  3.8389400000000000  2.9642599999999999 18.1058999999999983
  5.1804500000000004  0.8803900000000000 18.3363000000000014
  5.1185400000000003  2.2656000000000001 18.1341999999999999
  6.4002100000000004  0.2129110000000000 17.9038000000000004
  6.3051300000000001  2.9063400000000001 17.6490000000000009
  7.5505199999999997  0.9046830000000000 17.4457999999999984
  7.4589900000000000  2.2342100000000000 17.2562999999999995
  8.7678999999999991  0.1709770000000000 17.0911000000000008
  8.6051199999999994  2.8756300000000001 16.6128000000000000
  9.8780800000000006  0.8274010000000001 16.6237999999999992
  9.7769100000000009  2.1869499999999999 16.2617000000000012
 11.0793999999999997  0.1387580000000000 16.2718999999999987
 11.0183999999999997  2.8298500000000000 15.9463000000000008
 12.2558000000000007  0.8562110000000001 15.7309000000000001
 12.2383000000000006  2.1734700000000000 15.5795999999999992
 13.4804999999999993  0.1995120000000000 15.4490999999999996
 13.4894999999999996  2.8255400000000002 15.2286999999999999
 14.7490000000000006  0.7885810000000000 15.1229999999999993
 14.7278000000000002  2.1731900000000000 15.0571000000000002
 15.9268999999999998  0.1584500000000000 15.3949999999999996
 15.9738000000000007  2.8665900000000000 15.0256000000000007
 17.1766000000000005  0.8445540000000000 15.3699999999999992
 17.1978000000000009  2.1883800000000000 15.2870000000000008
 18.3884000000000007  0.1358260000000000 15.6682000000000006
 18.4334999999999987  2.8338299999999998 15.3607999999999993
 19.5884000000000000  0.8173970000000000 15.9362999999999992
 19.6369000000000007  2.1835100000000001 15.7340000000000000
 20.7879000000000005  0.1721050000000000 16.3807000000000009
 20.8380000000000010  2.8783099999999999 16.1671000000000014
 21.9106999999999985  0.8231290000000000 16.8813999999999993
 21.9833999999999996  2.2250000000000001 16.7173000000000016
 23.1204000000000001  0.1922800000000000 17.1671000000000014
 23.2240000000000002  2.8665799999999999 16.8991000000000007
 24.3292999999999999  0.7979330000000000 17.4471999999999987
 24.4111000000000011  2.1843699999999999 17.2866000000000000
 25.5606000000000009  0.1203610000000000 17.7542000000000009
 25.6667999999999985  2.8088600000000001 17.4094000000000015
 26.7123999999999988  0.7880350000000000 18.1824000000000012
 26.7204000000000015  2.2069399999999999 18.0418999999999983
  0.1938540000000000  4.9253600000000004 17.6248000000000005
  0.1438760000000000  6.3741099999999999 17.8392000000000017
  1.3317500000000000  4.2502100000000000 17.8626000000000005
  1.3827199999999999  6.9542400000000004 18.1574999999999989
  2.5708500000000001  5.0101199999999997 17.9532999999999987
  2.6193499999999998  6.2911999999999999 18.2356000000000016
  3.7859600000000002  4.3059799999999999 17.8165000000000013
  3.9023300000000001  6.9768699999999999 18.3058000000000014
  5.0691499999999996  4.9775999999999998 17.8188999999999993
  5.1053699999999997  6.3281700000000001 18.0180000000000007
  6.2320900000000004  4.2681699999999996 17.4857000000000014
  6.3439399999999999  6.9743700000000004 17.7815000000000012
  7.4593200000000000  4.9443599999999996 17.0868000000000002
  7.5616399999999997  6.2974899999999998 17.3034999999999997
  8.5906699999999994  4.2109800000000002 16.6636999999999986
  8.7810100000000002  6.8918299999999997 17.0138999999999996
  9.8135999999999992  4.8799099999999997 16.2947999999999986
  9.9085999999999999  6.2227100000000002 16.5414999999999992
 11.0190000000000001  4.2235399999999998 15.9563000000000006
 11.1112000000000002  6.8808999999999996 16.2183999999999990
 12.2504000000000008  4.8711300000000000 15.6511999999999993
 12.3307000000000002  6.2229099999999997 15.8287999999999993
 13.4334000000000007  4.2324400000000004 15.2683999999999997
 13.4921000000000006  6.9479100000000003 15.6471999999999998
 14.6913999999999998  4.8523699999999996 15.2226999999999997
 14.7100000000000009  6.1845999999999997 15.4530999999999992
 15.9806000000000008  4.2279799999999996 15.0060000000000002
 15.9496000000000002  6.8265099999999999 15.5665999999999993
 17.2159000000000013  4.8672800000000001 15.1965000000000003
 17.1827000000000005  6.1695399999999996 15.6013000000000002
 18.4760999999999989  4.1841400000000002 15.2415000000000003
 18.4011999999999993  6.8642599999999998 15.7471999999999994
 19.6718000000000011  4.8817899999999996 15.5713000000000008
 19.6842000000000006  6.2375800000000003 15.8106000000000009
 20.8747000000000007  4.2283799999999996 15.9314999999999998
 20.8826999999999998  6.9389099999999999 16.1277000000000008
 22.1640000000000015  4.8658599999999996 16.1373999999999995
 22.1083999999999996  6.2390299999999996 16.3162999999999982
 23.2908000000000008  4.2094899999999997 16.6229000000000013
 23.1808000000000014  6.9053000000000004 16.9122999999999983
 24.5177000000000014  4.8696299999999999 16.8491000000000000
 24.4391999999999996  6.2298999999999998 17.0595999999999997
 25.7185999999999986  4.1638099999999998 17.1659000000000006
 25.6385000000000005  6.9203700000000001 17.4120999999999988
 26.9170000000000016  4.8344100000000001 17.3223999999999982
 26.8520000000000003  6.2864000000000004 17.4680000000000000
