 C                                      
    1.000000000000000     
    28.0500000000000007    0.0000000000000000    0.0000000000000000
     0.0000000000000000    8.0999999999999996    0.0000000000000000
     0.0000000000000000    0.0000000000000000   33.5000000000000000
   C 
    92
Direct
     0.0032777005347597    0.1082332098765448    0.5023164179104498
     0.0059179679144350    0.2770814814814813    0.4989492537313467
     0.0463429590017839    0.0188890123456815    0.5083910447761184
     0.0489860962566837    0.3548666666666662    0.5042925373134324
     0.0889632798573956    0.0997711111111101    0.5223970149253745
     0.0905454545454560    0.2703925925925930    0.5217164179104472
     0.1327251336898385    0.0211061728395094    0.5253611940298484
     0.1333593582887715    0.3583456790123449    0.5296447761194045
     0.1747226381461644    0.0943624691358025    0.5391044776119429
     0.1740484848484840    0.2699493827160495    0.5428417910447791
     0.2209757575757578    0.0245565432098758    0.5380955223880619
     0.2183408199643466    0.3560740740740727    0.5482507462686570
     0.2653037433155063    0.1044300000000007    0.5447343283582100
     0.2636491978609641    0.2713074074074058    0.5517582089552207
     0.3095868092691632    0.0256556790123454    0.5415641791044763
     0.3107639928698731    0.3592246913580226    0.5517940298507469
     0.3545404634581075    0.1033707407407434    0.5475761194029829
     0.3552046345811064    0.2734395061728421    0.5517492537313444
     0.3990445632798583    0.0225749382716032    0.5357761194029820
     0.3991657754010660    0.3591987654320974    0.5481761194029815
     0.4453547237076663    0.1079960493827130    0.5339432835820901
     0.4436827094474154    0.2778333333333336    0.5399791044776094
     0.4843493761140820    0.0255413580246895    0.5180567164179095
     0.4873297682709463    0.3555740740740774    0.5287014925373157
     0.5276862745098043    0.1064604938271572    0.5094328358208955
     0.5290303030303036    0.2704530864197565    0.5167164179104446
     0.5658360071301232    0.0153077777777781    0.4927850746268660
     0.5703743315508021    0.3477098765432132    0.5029164179104484
     0.6109590017825326    0.1020651851851824    0.4832626865671656
     0.6132834224598938    0.2651888888888863    0.4931313432835793
     0.6527201426024973    0.0235350617283956    0.4716985074626834
     0.6557183600713046    0.3496567901234542    0.4790567164179080
     0.6976434937611415    0.0997620987654315    0.4657880597014952
     0.6975008912655980    0.2709716049382749    0.4685910447761188
     0.7382602495543651    0.0204227160493815    0.4536298507462675
     0.7410303030302998    0.3541444444444437    0.4578208955223886
     0.7832941176470598    0.1068911111111106    0.4505791044776117
     0.7837611408199621    0.2749851851851872    0.4559253731343276
     0.8279964349376101    0.0212823456790119    0.4508567164179098
     0.8284812834224624    0.3551123456790108    0.4550985074626865
     0.8728057040998252    0.1052072839506195    0.4590805970149248
     0.8717326203208557    0.2738839506172823    0.4624149253731318
     0.9142994652406387    0.0266341975308677    0.4718776119403003
     0.9153333333333364    0.3587654320987639    0.4714000000000027
     0.9545989304812821    0.1061703703703714    0.4872089552238776
     0.9569197860962575    0.2730432098765405    0.4821552238805964
     0.0132206060606066    0.6051456790123453    0.4785343283582080
     0.0114785026737962    0.7722271604938271    0.4809223880597031
     0.0511122994652382    0.5213888888888860    0.4963223880597027
     0.0485251336898429    0.8607283950617273    0.4973253731343306
     0.0943222816399256    0.6048827160493815    0.5025283582089557
     0.0949836007130145    0.7759506172839536    0.5002119402985059
     0.1348360071301258    0.5228740740740747    0.5181850746268637
     0.1358377896613163    0.8571135802469172    0.5122477611940326
     0.1768007130124758    0.6039259259259282    0.5257970149253737
     0.1787996434937611    0.7733197530864189    0.5213164179104481
     0.2208702317290587    0.5227506172839540    0.5425253731343318
     0.2231786096256698    0.8557913580246890    0.5305492537313441
     0.2665721925133724    0.6066716049382705    0.5425582089552208
     0.2666221033868084    0.7712259259259255    0.5342149253731350
     0.3107415329768273    0.5250543209876568    0.5478447761194047
     0.3103326203208567    0.8602703703703725    0.5361492537313453
     0.3537290552584693    0.6038086419753057    0.5451910447761179
     0.3531112299465207    0.7711111111111109    0.5360746268656698
     0.3985240641711201    0.5248185185185150    0.5435194029850763
     0.3966167557932252    0.8557901234567922    0.5304059701492534
     0.4422032085561511    0.6106160493827133    0.5322238805970159
     0.4386595365418913    0.7697654320987652    0.5219611940298492
     0.4861853832442051    0.5265111111111125    0.5259402985074644
     0.4830053475935827    0.8565370370370360    0.5112955223880604
     0.5264705882352914    0.5983320987654324    0.5056805970149227
     0.5258288770053454    0.7674740740740731    0.5016567164179122
     0.5692370766488395    0.5157777777777781    0.4945761194029856
     0.5658360071301232    0.8472456790123459    0.4884328358208947
     0.6114081996434919    0.5990246913580251    0.4807641791044759
     0.6095721925133688    0.7619469135802461    0.4756268656716429
     0.6532049910873425    0.5181888888888864    0.4717641791044755
     0.6517647058823499    0.8514308641975319    0.4652597014925348
     0.6942210338680894    0.6042222222222193    0.4570537313432865
     0.6946631016042772    0.7709790123456770    0.4560000000000031
     0.7381176470588215    0.5214308641975336    0.4533701492537290
     0.7408627450980418    0.8541913580246927    0.4508238805970137
     0.7830802139037445    0.6034074074074098    0.4467701492537302
     0.7831016042780732    0.7713950617283984    0.4449820895522407
     0.8287985739750425    0.5198839506172845    0.4497880597014898
     0.8293975044563311    0.8531888888888872    0.4456358208955251
     0.8755900178253100    0.6048864197530861    0.4547194029850772
     0.8755543672014241    0.7738790123456809    0.4536477611940271
     0.9184598930481300    0.5233962962962977    0.4645970149253742
     0.9188342245989318    0.8616765432098745    0.4635940298507464
     0.9599893048128365    0.6057185185185219    0.4707253731343286
     0.9610873440285204    0.7718086419753121    0.4686776119403007
 
  0.00000000E+00  0.00000000E+00  0.00000000E+00
  0.00000000E+00  0.00000000E+00  0.00000000E+00
  0.00000000E+00  0.00000000E+00  0.00000000E+00
  0.00000000E+00  0.00000000E+00  0.00000000E+00
  0.00000000E+00  0.00000000E+00  0.00000000E+00
  0.00000000E+00  0.00000000E+00  0.00000000E+00
  0.00000000E+00  0.00000000E+00  0.00000000E+00
  0.00000000E+00  0.00000000E+00  0.00000000E+00
  0.00000000E+00  0.00000000E+00  0.00000000E+00
  0.00000000E+00  0.00000000E+00  0.00000000E+00
  0.00000000E+00  0.00000000E+00  0.00000000E+00
  0.00000000E+00  0.00000000E+00  0.00000000E+00
  0.00000000E+00  0.00000000E+00  0.00000000E+00
  0.00000000E+00  0.00000000E+00  0.00000000E+00
  0.00000000E+00  0.00000000E+00  0.00000000E+00
  0.00000000E+00  0.00000000E+00  0.00000000E+00
  0.00000000E+00  0.00000000E+00  0.00000000E+00
  0.00000000E+00  0.00000000E+00  0.00000000E+00
  0.00000000E+00  0.00000000E+00  0.00000000E+00
  0.00000000E+00  0.00000000E+00  0.00000000E+00
  0.00000000E+00  0.00000000E+00  0.00000000E+00
  0.00000000E+00  0.00000000E+00  0.00000000E+00
  0.00000000E+00  0.00000000E+00  0.00000000E+00
  0.00000000E+00  0.00000000E+00  0.00000000E+00
  0.00000000E+00  0.00000000E+00  0.00000000E+00
  0.00000000E+00  0.00000000E+00  0.00000000E+00
  0.00000000E+00  0.00000000E+00  0.00000000E+00
  0.00000000E+00  0.00000000E+00  0.00000000E+00
  0.00000000E+00  0.00000000E+00  0.00000000E+00
  0.00000000E+00  0.00000000E+00  0.00000000E+00
  0.00000000E+00  0.00000000E+00  0.00000000E+00
  0.00000000E+00  0.00000000E+00  0.00000000E+00
  0.00000000E+00  0.00000000E+00  0.00000000E+00
  0.00000000E+00  0.00000000E+00  0.00000000E+00
  0.00000000E+00  0.00000000E+00  0.00000000E+00
  0.00000000E+00  0.00000000E+00  0.00000000E+00
  0.00000000E+00  0.00000000E+00  0.00000000E+00
  0.00000000E+00  0.00000000E+00  0.00000000E+00
  0.00000000E+00  0.00000000E+00  0.00000000E+00
  0.00000000E+00  0.00000000E+00  0.00000000E+00
  0.00000000E+00  0.00000000E+00  0.00000000E+00
  0.00000000E+00  0.00000000E+00  0.00000000E+00
  0.00000000E+00  0.00000000E+00  0.00000000E+00
  0.00000000E+00  0.00000000E+00  0.00000000E+00
  0.00000000E+00  0.00000000E+00  0.00000000E+00
  0.00000000E+00  0.00000000E+00  0.00000000E+00
  0.00000000E+00  0.00000000E+00  0.00000000E+00
  0.00000000E+00  0.00000000E+00  0.00000000E+00
  0.00000000E+00  0.00000000E+00  0.00000000E+00
  0.00000000E+00  0.00000000E+00  0.00000000E+00
  0.00000000E+00  0.00000000E+00  0.00000000E+00
  0.00000000E+00  0.00000000E+00  0.00000000E+00
  0.00000000E+00  0.00000000E+00  0.00000000E+00
  0.00000000E+00  0.00000000E+00  0.00000000E+00
  0.00000000E+00  0.00000000E+00  0.00000000E+00
  0.00000000E+00  0.00000000E+00  0.00000000E+00
  0.00000000E+00  0.00000000E+00  0.00000000E+00
  0.00000000E+00  0.00000000E+00  0.00000000E+00
  0.00000000E+00  0.00000000E+00  0.00000000E+00
  0.00000000E+00  0.00000000E+00  0.00000000E+00
  0.00000000E+00  0.00000000E+00  0.00000000E+00
  0.00000000E+00  0.00000000E+00  0.00000000E+00
  0.00000000E+00  0.00000000E+00  0.00000000E+00
  0.00000000E+00  0.00000000E+00  0.00000000E+00
  0.00000000E+00  0.00000000E+00  0.00000000E+00
  0.00000000E+00  0.00000000E+00  0.00000000E+00
  0.00000000E+00  0.00000000E+00  0.00000000E+00
  0.00000000E+00  0.00000000E+00  0.00000000E+00
  0.00000000E+00  0.00000000E+00  0.00000000E+00
  0.00000000E+00  0.00000000E+00  0.00000000E+00
  0.00000000E+00  0.00000000E+00  0.00000000E+00
  0.00000000E+00  0.00000000E+00  0.00000000E+00
  0.00000000E+00  0.00000000E+00  0.00000000E+00
  0.00000000E+00  0.00000000E+00  0.00000000E+00
  0.00000000E+00  0.00000000E+00  0.00000000E+00
  0.00000000E+00  0.00000000E+00  0.00000000E+00
  0.00000000E+00  0.00000000E+00  0.00000000E+00
  0.00000000E+00  0.00000000E+00  0.00000000E+00
  0.00000000E+00  0.00000000E+00  0.00000000E+00
  0.00000000E+00  0.00000000E+00  0.00000000E+00
  0.00000000E+00  0.00000000E+00  0.00000000E+00
  0.00000000E+00  0.00000000E+00  0.00000000E+00
  0.00000000E+00  0.00000000E+00  0.00000000E+00
  0.00000000E+00  0.00000000E+00  0.00000000E+00
  0.00000000E+00  0.00000000E+00  0.00000000E+00
  0.00000000E+00  0.00000000E+00  0.00000000E+00
  0.00000000E+00  0.00000000E+00  0.00000000E+00
  0.00000000E+00  0.00000000E+00  0.00000000E+00
  0.00000000E+00  0.00000000E+00  0.00000000E+00
  0.00000000E+00  0.00000000E+00  0.00000000E+00
  0.00000000E+00  0.00000000E+00  0.00000000E+00
  0.00000000E+00  0.00000000E+00  0.00000000E+00
