 C 
 1.0000000000000000
    28.0500000000000007    0.0000000000000000    0.0000000000000000
     0.0000000000000000    8.0999999999999996    0.0000000000000000
     0.0000000000000000    0.0000000000000000   33.5000000000000000
 C  
  92
Cartesian
  0.0919395000000000  0.8766890000000001 16.8276000000000003
  0.1659990000000000  2.2443599999999999 16.7148000000000003
  1.2999200000000000  0.1530010000000000 17.0310999999999986
  1.3740600000000001  2.8744200000000002 16.8937999999999988
  2.4954200000000002  0.8081460000000000 17.5002999999999993
  2.5398000000000001  2.1901799999999998 17.4774999999999991
  3.7229399999999999  0.1709600000000000 17.5995999999999988
  3.7407300000000001  2.9026000000000001 17.7430999999999983
  4.9009700000000000  0.7643360000000000 18.0599999999999987
  4.8820600000000001  2.1865899999999998 18.1851999999999983
  6.1983699999999997  0.1989080000000000 18.0261999999999993
  6.1244600000000000  2.8841999999999999 18.3663999999999987
  7.4417700000000000  0.8458830000000001 18.2485999999999997
  7.3953600000000002  2.1975899999999999 18.4838999999999984
  8.6839099999999991  0.2078110000000000 18.1423999999999985
  8.7169299999999996  2.9097200000000001 18.4850999999999992
  9.9448600000000003  0.8373030000000000 18.3438000000000017
  9.9634900000000002  2.2148599999999998 18.4835999999999991
 11.1931999999999992  0.1828570000000000 17.9484999999999992
 11.1966000000000001  2.9095100000000000 18.3639000000000010
 12.4922000000000004  0.8747680000000000 17.8871000000000002
 12.4452999999999996  2.2504499999999998 18.0893000000000015
 13.5860000000000003  0.2068850000000000 17.3549000000000007
 13.6696000000000009  2.8801500000000000 17.7115000000000009
 14.8016000000000005  0.8623300000000000 17.0659999999999989
 14.8392999999999997  2.1906699999999999 17.3099999999999987
 15.8717000000000006  0.1239930000000000 16.5082999999999984
 15.9990000000000006  2.8164500000000001 16.8476999999999997
 17.1373999999999995  0.8267280000000000 16.1892999999999994
 17.2026000000000003  2.1480299999999999 16.5198999999999998
 18.3088000000000015  0.1906340000000000 15.8018999999999998
 18.3929000000000009  2.8322200000000000 16.0484000000000009
 19.5688999999999993  0.8080730000000000 15.6038999999999994
 19.5649000000000015  2.1948699999999999 15.6978000000000009
 20.7082000000000015  0.1654240000000000 15.1966000000000001
 20.7859000000000016  2.8685700000000001 15.3369999999999997
 21.9713999999999992  0.8658180000000000 15.0944000000000003
 21.9845000000000006  2.2273800000000001 15.2735000000000003
 23.2253000000000007  0.1723870000000000 15.1036999999999999
 23.2389000000000010  2.8764099999999999 15.2457999999999991
 24.4821999999999989  0.8521790000000000 15.3792000000000009
 24.4521000000000015  2.2184599999999999 15.4908999999999999
 25.6461000000000006  0.2157370000000000 15.8079000000000001
 25.6751000000000005  2.9060000000000001 15.7919000000000000
 26.7764999999999986  0.8599800000000000 16.3215000000000003
 26.8415999999999997  2.2116500000000001 16.1522000000000006
  0.3708380000000000  4.9016799999999998 16.0308999999999990
  0.3219720000000000  6.2550400000000002 16.1109000000000009
  1.4337000000000000  4.2232500000000002 16.6267999999999994
  1.3611300000000000  6.9718999999999998 16.6603999999999992
  2.6457400000000000  4.8995499999999996 16.8347000000000016
  2.6642899999999998  6.2851999999999997 16.7571000000000012
  3.7821500000000001  4.2352800000000004 17.3592000000000013
  3.8102499999999999  6.9426199999999998 17.1602999999999994
  4.9592599999999996  4.8917999999999999 17.6142000000000003
  5.0153299999999996  6.2638900000000000 17.4640999999999984
  6.1954099999999999  4.2342800000000000 18.1746000000000016
  6.2601599999999999  6.9319100000000002 17.7733999999999988
  7.4773500000000004  4.9140400000000000 18.1756999999999991
  7.4787499999999998  6.2469299999999999 17.8962000000000003
  8.7163000000000004  4.2529399999999997 18.3527999999999984
  8.7048299999999994  6.9681899999999999 17.9609999999999985
  9.9221000000000004  4.8908500000000004 18.2638999999999996
  9.9047699999999992  6.2460000000000004 17.9585000000000008
 11.1785999999999994  4.2510300000000001 18.2078999999999986
 11.1250999999999998  6.9318999999999997 17.7685999999999993
 12.4038000000000004  4.9459900000000001 17.8294999999999995
 12.3043999999999993  6.2351000000000001 17.4857000000000014
 13.6374999999999993  4.2647399999999998 17.6189999999999998
 13.5482999999999993  6.9379499999999998 17.1283999999999992
 14.7675000000000001  4.8464900000000002 16.9403000000000006
 14.7494999999999994  6.2165400000000002 16.8054999999999986
 15.9671000000000003  4.1778000000000004 16.5683000000000007
 15.8717000000000006  6.8626899999999997 16.3625000000000007
 17.1499999999999986  4.8521000000000001 16.1055999999999990
 17.0985000000000014  6.1717700000000004 15.9335000000000004
 18.3223999999999982  4.1973300000000000 15.8041000000000000
 18.2820000000000000  6.8965899999999998 15.5861999999999998
 19.4728999999999992  4.8941999999999997 15.3112999999999992
 19.4852999999999987  6.2449300000000001 15.2759999999999998
 20.7042000000000002  4.2235899999999997 15.1879000000000008
 20.7811999999999983  6.9189499999999997 15.1026000000000007
 21.9653999999999989  4.8875999999999999 14.9667999999999992
 21.9660000000000011  6.2483000000000004 14.9069000000000003
 23.2478000000000016  4.2110599999999998 15.0678999999999998
 23.2646000000000015  6.9108299999999998 14.9288000000000007
 24.5603000000000016  4.8995800000000003 15.2331000000000003
 24.5593000000000004  6.2684199999999999 15.1972000000000005
 25.7627999999999986  4.2395100000000001 15.5640000000000001
 25.7732999999999990  6.9795800000000003 15.5304000000000002
 26.9277000000000015  4.9063200000000000 15.7692999999999994
 26.9585000000000008  6.2516499999999997 15.7006999999999994
