 C                                      
    1.000000000000000     
    28.0500000000000007    0.0000000000000000    0.0000000000000000
     0.0000000000000000    8.0999999999999996    0.0000000000000000
     0.0000000000000000    0.0000000000000000   33.5000000000000000
   C 
    92
Direct
     0.3318677361853801    0.1314802469135827    0.9743283582089575
     0.3315996434937603    0.3039765432098775    0.9752238805970208
     0.3744420677361830    0.0481246913580264    0.9799999999999969
     0.3735721925133717    0.3852580246913604    0.9826865671641798
     0.4153155080213935    0.1320358024691330    0.9964179104477680
     0.4142673796791456    0.3012864197530831    0.9985074626865682
     0.4582531194295925    0.0491387654320974    0.0056716417910465
     0.4562067736185398    0.3852493827160473    0.0095522388059663
     0.4992513368983964    0.1270395061728422    0.0220895522388034
     0.4980071301247762    0.2983395061728373    0.0232835820895545
     0.5430017825311921    0.0457751851851853    0.0292537313432817
     0.5431122994652426    0.3740320987654329    0.0277611940298499
     0.5869447415329745    0.1239814814814792    0.0373134328358233
     0.5870873440285180    0.2928740740740707    0.0361194029850793
     0.6333012477718327    0.0467649382716075    0.0373134328358233
     0.6335543672014268    0.3735395061728397    0.0385074626865674
     0.6775686274509809    0.1253123456790135    0.0382089552238796
     0.6783529411764704    0.2931580246913583    0.0388059701492551
     0.7223743315508031    0.0444144444444419    0.0298507462686572
     0.7225276292335110    0.3742012345678987    0.0328358208955208
     0.7654224598930455    0.1276049382716025    0.0229850746268667
     0.7675650623885915    0.2954259259259260    0.0259701492537303
     0.8078003565062417    0.0452813580246882    0.0104477611940297
     0.8093475935828849    0.3735518518518504    0.0143283582089566
     0.8507664884135480    0.1242419753086423    0.0014925373134318
     0.8518003565062386    0.2913333333333341    0.0032835820895514
     0.8918253119429593    0.0404361728395060    0.9853731343283556
     0.8936327985739752    0.3741234567901230    0.9886567164179070
     0.9348805704099803    0.1220590123456802    0.9746268656716452
     0.9353725490196112    0.2924345679012319    0.9758208955223893
     0.9761247771835997    0.0432437037037019    0.9585074626865620
     0.9770873440285186    0.3771481481481516    0.9653731343283596
     0.0201990017825295    0.1226018518518543    0.9540298507462737
     0.0206152228163958    0.2960604938271629    0.9579104477611935
     0.0636791443850271    0.0413574074074106    0.9471641791044760
     0.0642163992869911    0.3758876543209908    0.9501492537313396
     0.1082303030303038    0.1240333333333368    0.9465671641791076
     0.1087597147950063    0.2935185185185176    0.9486567164179078
     0.1522805704099852    0.0451854320987621    0.9417910447761173
     0.1523450980392127    0.3792209876543211    0.9453731343283636
     0.1968866310160422    0.1275123456790155    0.9465671641791076
     0.1962163992869890    0.3005716049382698    0.9495522388059712
     0.2413279857397512    0.0436264197530889    0.9483582089552272
     0.2412128342245978    0.3853975308641964    0.9543283582089543
     0.2819040998217446    0.1278456790123457    0.9620895522388082
     0.2820121212121194    0.3012074074074107    0.9635820895522400
     0.3379422459893036    0.6325814814814805    0.9576119402985057
     0.3382777183600680    0.8014456790123461    0.9552238805970177
     0.3778716577540138    0.5484765432098797    0.9725373134328308
     0.3782032085561511    0.8854345679012354    0.9698507462686550
     0.4213368983957224    0.6296432098765408    0.9814925373134358
     0.4216969696969670    0.8024197530864186    0.9802985074626847
     0.4602459893048163    0.5493222222222229    0.0002985074626878
     0.4622673796791474    0.8834271604938237    0.9961194029850731
     0.5026345811051698    0.6311666666666653    0.0107462686567175
     0.5028805704099852    0.8007740740740772    0.0092537313432857
     0.5446524064171143    0.5431641975308636    0.0229850746268667
     0.5450445632798591    0.8779518518518543    0.0229850746268667
     0.5901853832442043    0.6255469135802443    0.0259701492537303
     0.5898467023172884    0.7949185185185215    0.0277611940298499
     0.6337647058823563    0.5413037037037043    0.0313432835820890
     0.6334616755793192    0.8780777777777757    0.0331343283582086
     0.6777290552584674    0.6259086419753075    0.0301492537313450
     0.6775828877005381    0.7963234567901267    0.0310447761194013
     0.7221247771836019    0.5432975308641943    0.0286567164179132
     0.7207664884135454    0.8756246913580270    0.0259701492537303
     0.7639928698752243    0.6217765432098759    0.0161194029850762
     0.7632655971479494    0.7937827160493853    0.0143283582089566
     0.8084527629233520    0.5421864197530866    0.0089552238805979
     0.8057468805704104    0.8759691358024710    0.0038805970149269
     0.8485918003565089    0.6252913580246897    0.9937313432835850
     0.8468163992869862    0.7936234567901224    0.9889552238806019
     0.8918110516934021    0.5420641975308627    0.9823880597014991
     0.8889447415329741    0.8764172839506159    0.9770149253731333
     0.9321675579322672    0.6254024691357998    0.9668656716417914
     0.9312798573975059    0.7960617283950597    0.9629850746268644
     0.9761853832442071    0.5451259259259231    0.9597014925373202
     0.9741532976827116    0.8756530864197529    0.9528358208955225
     0.0188719786096243    0.6226654320987635    0.9474626865671638
     0.0175272370766493    0.7923814814814847    0.9438805970149247
     0.0636110516934068    0.5474061728395085    0.9444776119403002
     0.0621689839572213    0.8754716049382694    0.9402985074626855
     0.1072235294117618    0.6275172839506169    0.9361194029850708
     0.1072278074866304    0.7971320987654309    0.9346268656716390
     0.1522698752228138    0.5478209876543190    0.9388059701492537
     0.1522919786096253    0.8780382716049360    0.9355223880597023
     0.1974228163992890    0.6260209876543215    0.9370149253731412
     0.1968894830659522    0.7950246913580230    0.9349253731343268
     0.2425311942958999    0.5467827160493854    0.9438805970149247
     0.2415386809269151    0.8783037037037005    0.9414925373134295
     0.2860135472370757    0.6296740740740745    0.9459701492537320
     0.2860217468805715    0.8011407407407418    0.9447761194029880
 
  0.00000000E+00  0.00000000E+00  0.00000000E+00
  0.00000000E+00  0.00000000E+00  0.00000000E+00
  0.00000000E+00  0.00000000E+00  0.00000000E+00
  0.00000000E+00  0.00000000E+00  0.00000000E+00
  0.00000000E+00  0.00000000E+00  0.00000000E+00
  0.00000000E+00  0.00000000E+00  0.00000000E+00
  0.00000000E+00  0.00000000E+00  0.00000000E+00
  0.00000000E+00  0.00000000E+00  0.00000000E+00
  0.00000000E+00  0.00000000E+00  0.00000000E+00
  0.00000000E+00  0.00000000E+00  0.00000000E+00
  0.00000000E+00  0.00000000E+00  0.00000000E+00
  0.00000000E+00  0.00000000E+00  0.00000000E+00
  0.00000000E+00  0.00000000E+00  0.00000000E+00
  0.00000000E+00  0.00000000E+00  0.00000000E+00
  0.00000000E+00  0.00000000E+00  0.00000000E+00
  0.00000000E+00  0.00000000E+00  0.00000000E+00
  0.00000000E+00  0.00000000E+00  0.00000000E+00
  0.00000000E+00  0.00000000E+00  0.00000000E+00
  0.00000000E+00  0.00000000E+00  0.00000000E+00
  0.00000000E+00  0.00000000E+00  0.00000000E+00
  0.00000000E+00  0.00000000E+00  0.00000000E+00
  0.00000000E+00  0.00000000E+00  0.00000000E+00
  0.00000000E+00  0.00000000E+00  0.00000000E+00
  0.00000000E+00  0.00000000E+00  0.00000000E+00
  0.00000000E+00  0.00000000E+00  0.00000000E+00
  0.00000000E+00  0.00000000E+00  0.00000000E+00
  0.00000000E+00  0.00000000E+00  0.00000000E+00
  0.00000000E+00  0.00000000E+00  0.00000000E+00
  0.00000000E+00  0.00000000E+00  0.00000000E+00
  0.00000000E+00  0.00000000E+00  0.00000000E+00
  0.00000000E+00  0.00000000E+00  0.00000000E+00
  0.00000000E+00  0.00000000E+00  0.00000000E+00
  0.00000000E+00  0.00000000E+00  0.00000000E+00
  0.00000000E+00  0.00000000E+00  0.00000000E+00
  0.00000000E+00  0.00000000E+00  0.00000000E+00
  0.00000000E+00  0.00000000E+00  0.00000000E+00
  0.00000000E+00  0.00000000E+00  0.00000000E+00
  0.00000000E+00  0.00000000E+00  0.00000000E+00
  0.00000000E+00  0.00000000E+00  0.00000000E+00
  0.00000000E+00  0.00000000E+00  0.00000000E+00
  0.00000000E+00  0.00000000E+00  0.00000000E+00
  0.00000000E+00  0.00000000E+00  0.00000000E+00
  0.00000000E+00  0.00000000E+00  0.00000000E+00
  0.00000000E+00  0.00000000E+00  0.00000000E+00
  0.00000000E+00  0.00000000E+00  0.00000000E+00
  0.00000000E+00  0.00000000E+00  0.00000000E+00
  0.00000000E+00  0.00000000E+00  0.00000000E+00
  0.00000000E+00  0.00000000E+00  0.00000000E+00
  0.00000000E+00  0.00000000E+00  0.00000000E+00
  0.00000000E+00  0.00000000E+00  0.00000000E+00
  0.00000000E+00  0.00000000E+00  0.00000000E+00
  0.00000000E+00  0.00000000E+00  0.00000000E+00
  0.00000000E+00  0.00000000E+00  0.00000000E+00
  0.00000000E+00  0.00000000E+00  0.00000000E+00
  0.00000000E+00  0.00000000E+00  0.00000000E+00
  0.00000000E+00  0.00000000E+00  0.00000000E+00
  0.00000000E+00  0.00000000E+00  0.00000000E+00
  0.00000000E+00  0.00000000E+00  0.00000000E+00
  0.00000000E+00  0.00000000E+00  0.00000000E+00
  0.00000000E+00  0.00000000E+00  0.00000000E+00
  0.00000000E+00  0.00000000E+00  0.00000000E+00
  0.00000000E+00  0.00000000E+00  0.00000000E+00
  0.00000000E+00  0.00000000E+00  0.00000000E+00
  0.00000000E+00  0.00000000E+00  0.00000000E+00
  0.00000000E+00  0.00000000E+00  0.00000000E+00
  0.00000000E+00  0.00000000E+00  0.00000000E+00
  0.00000000E+00  0.00000000E+00  0.00000000E+00
  0.00000000E+00  0.00000000E+00  0.00000000E+00
  0.00000000E+00  0.00000000E+00  0.00000000E+00
  0.00000000E+00  0.00000000E+00  0.00000000E+00
  0.00000000E+00  0.00000000E+00  0.00000000E+00
  0.00000000E+00  0.00000000E+00  0.00000000E+00
  0.00000000E+00  0.00000000E+00  0.00000000E+00
  0.00000000E+00  0.00000000E+00  0.00000000E+00
  0.00000000E+00  0.00000000E+00  0.00000000E+00
  0.00000000E+00  0.00000000E+00  0.00000000E+00
  0.00000000E+00  0.00000000E+00  0.00000000E+00
  0.00000000E+00  0.00000000E+00  0.00000000E+00
  0.00000000E+00  0.00000000E+00  0.00000000E+00
  0.00000000E+00  0.00000000E+00  0.00000000E+00
  0.00000000E+00  0.00000000E+00  0.00000000E+00
  0.00000000E+00  0.00000000E+00  0.00000000E+00
  0.00000000E+00  0.00000000E+00  0.00000000E+00
  0.00000000E+00  0.00000000E+00  0.00000000E+00
  0.00000000E+00  0.00000000E+00  0.00000000E+00
  0.00000000E+00  0.00000000E+00  0.00000000E+00
  0.00000000E+00  0.00000000E+00  0.00000000E+00
  0.00000000E+00  0.00000000E+00  0.00000000E+00
  0.00000000E+00  0.00000000E+00  0.00000000E+00
  0.00000000E+00  0.00000000E+00  0.00000000E+00
  0.00000000E+00  0.00000000E+00  0.00000000E+00
  0.00000000E+00  0.00000000E+00  0.00000000E+00
