 C 
 1.0000000000000000
    28.0500000000000007    0.0000000000000000    0.0000000000000000
     0.0000000000000000    8.0999999999999996    0.0000000000000000
     0.0000000000000000    0.0000000000000000   33.5000000000000000
 C  
  92
Cartesian
  9.3088899999999999  1.0649900000000001 -1106.3599999999999000
  9.3013700000000004  2.4622099999999998 -1106.3299999999999272
 10.5030999999999999  0.3898100000000000 -1106.1700000000000728
 10.4786999999999999  3.1205900000000000 -1106.0799999999999272
 11.6495999999999995  1.0694900000000001 -1105.6199999999998909
 11.6202000000000005  2.4404200000000000 -1105.5499999999999545
 12.8539999999999992  0.3980240000000000 -1105.3099999999999454
 12.7965999999999998  3.1205200000000000 -1105.1800000000000637
 14.0039999999999996  1.0290200000000000 -1104.7599999999999909
 13.9690999999999992  2.4165500000000000 -1104.7200000000000273
 15.2311999999999994  0.3707790000000000 -1104.5199999999999818
 15.2342999999999993  3.0296599999999998 -1104.5699999999999363
 16.4637999999999991  1.0042500000000001 -1104.2500000000000000
 16.4678000000000004  2.3722799999999999 -1104.2899999999999636
 17.7640999999999991  0.3787960000000000 -1104.2500000000000000
 17.7712000000000003  3.0256699999999999 -1104.2100000000000364
 19.0058000000000007  1.0150300000000001 -1104.2200000000000273
 19.0277999999999992  2.3745799999999999 -1104.2000000000000455
 20.2625999999999991  0.3597570000000000 -1104.5000000000000000
 20.2668999999999997  3.0310299999999999 -1104.4000000000000909
 21.4700999999999986  1.0336000000000001 -1104.7300000000000182
 21.5302000000000007  2.3929499999999999 -1104.6300000000001091
 22.6587999999999994  0.3667790000000000 -1105.1500000000000909
 22.7022000000000013  3.0257700000000001 -1105.0199999999999818
 23.8640000000000008  1.0063599999999999 -1105.4500000000000455
 23.8930000000000007  2.3597999999999999 -1105.3900000000001000
 25.0156999999999989  0.3275330000000000 -1105.9900000000000091
 25.0664000000000016  3.0304000000000002 -1105.8800000000001091
 26.2234000000000016  0.9886779999999999 -1106.3499999999999091
 26.2372000000000014  2.3687200000000002 -1106.3099999999999454
 27.3802999999999983  0.3502740000000000 -1106.8900000000001000
 27.4072999999999993  3.0548999999999999 -1106.6600000000000819
  0.5665820000000000  0.9930750000000000 -1107.0399999999999636
  0.5782570000000000  2.3980899999999998 -1106.9100000000000819
  1.7862000000000000  0.3349950000000000 -1107.2699999999999818
  1.8012699999999999  3.0446900000000001 -1107.1700000000000728
  3.0358600000000000  1.0046700000000000 -1107.2899999999999636
  3.0507100000000000  2.3774999999999999 -1107.2200000000000273
  4.2714699999999999  0.3660020000000000 -1107.4500000000000455
  4.2732799999999997  3.0716899999999998 -1107.3299999999999272
  5.5226699999999997  1.0328500000000000 -1107.2899999999999636
  5.5038700000000000  2.4346299999999998 -1107.1900000000000546
  6.7692500000000004  0.3533740000000000 -1107.2300000000000182
  6.7660200000000001  3.1217199999999998 -1107.0299999999999727
  7.9074099999999996  1.0355500000000000 -1106.7699999999999818
  7.9104400000000004  2.4397799999999998 -1106.7200000000000273
  9.4792799999999993  5.1239100000000004 -1106.9200000000000728
  9.4886900000000001  6.4917100000000003 -1107.0000000000000000
 10.5992999999999995  4.4426600000000001 -1106.4200000000000728
 10.6085999999999991  7.1720199999999998 -1106.5099999999999909
 11.8185000000000002  5.1001099999999999 -1106.1199999999998909
 11.8285999999999998  6.4996000000000000 -1106.1600000000000819
 12.9099000000000004  4.4495100000000001 -1105.4900000000000091
 12.9665999999999997  7.1557599999999999 -1105.6300000000001091
 14.0989000000000004  5.1124499999999999 -1105.1400000000001000
 14.1058000000000003  6.4862700000000002 -1105.1900000000000546
 15.2774999999999999  4.3996300000000002 -1104.7300000000000182
 15.2885000000000009  7.1114100000000002 -1104.7300000000000182
 16.5547000000000004  5.0669300000000002 -1104.6300000000001091
 16.5452000000000012  6.4388399999999999 -1104.5699999999999363
 17.7771000000000008  4.3845599999999996 -1104.4500000000000455
 17.7685999999999993  7.1124299999999998 -1104.3900000000001000
 19.0103000000000009  5.0698600000000003 -1104.4900000000000091
 19.0061999999999998  6.4502199999999998 -1104.4600000000000364
 20.2556000000000012  4.4007100000000001 -1104.5399999999999636
 20.2175000000000011  7.0925599999999998 -1104.6300000000001091
 21.4299999999999997  5.0363899999999999 -1104.9600000000000364
 21.4096000000000011  6.4296400000000000 -1105.0199999999999818
 22.6770999999999994  4.3917099999999998 -1105.2000000000000455
 22.6011999999999986  7.0953499999999998 -1105.3699999999998909
 23.8030000000000008  5.0648600000000004 -1105.7100000000000364
 23.7531999999999996  6.4283500000000000 -1105.8699999999998909
 25.0152999999999999  4.3907200000000000 -1106.0899999999999181
 24.9348999999999990  7.0989800000000001 -1106.2699999999999818
 26.1473000000000013  5.0657600000000000 -1106.6099999999999000
 26.1223999999999990  6.4481000000000002 -1106.7400000000000091
 27.3820000000000014  4.4155199999999999 -1106.8499999999999091
 27.3249999999999993  7.0927899999999999 -1107.0799999999999272
  0.5293590000000000  5.0435900000000000 -1107.2599999999999909
  0.4916390000000000  6.4182899999999998 -1107.3800000000001091
  1.7842899999999999  4.4339899999999997 -1107.3599999999999000
  1.7438400000000001  7.0913199999999996 -1107.5000000000000000
  3.0076200000000002  5.0828899999999999 -1107.6400000000001000
  3.0077400000000001  6.4567699999999997 -1107.6900000000000546
  4.2711699999999997  4.4373500000000003 -1107.5499999999999545
  4.2717900000000002  7.1121100000000004 -1107.6600000000000819
  5.5377099999999997  5.0707700000000004 -1107.6099999999999000
  5.5227500000000003  6.4397000000000002 -1107.6800000000000637
  6.8029999999999999  4.4289399999999999 -1107.3800000000001091
  6.7751599999999996  7.1142599999999998 -1107.4600000000000364
  8.0226799999999994  5.1003600000000002 -1107.3099999999999454
  8.0229099999999995  6.4892399999999997 -1107.3499999999999091
