 C 
 1.0000000000000000
    28.0500000000000007    0.0000000000000000    0.0000000000000000
     0.0000000000000000    8.0999999999999996    0.0000000000000000
     0.0000000000000000    0.0000000000000000   33.5000000000000000
 C  
  92
Cartesian
  0.2605230000000000  0.8829320000000001 18.5095999999999989
  0.2566230000000000  2.2782800000000001 18.5730000000000004
  1.4167400000000001  0.1868680000000000 18.1045000000000016
  1.4649399999999999  2.8991400000000001 18.4058999999999990
  2.6828799999999999  0.8713580000000000 18.0196000000000005
  2.7165800000000000  2.2046299999999999 18.1992000000000012
  3.8181699999999998  0.1983160000000000 17.4131000000000000
  3.9531100000000001  2.8727000000000000 17.8942000000000014
  5.0449500000000000  0.8455350000000000 17.1247000000000007
  5.1077899999999996  2.1908500000000002 17.4162999999999997
  6.1492199999999997  0.1678000000000000 16.4707000000000008
  6.3554899999999996  2.8749699999999998 17.0420000000000016
  7.3778199999999998  0.8473610000000000 16.1401000000000003
  7.4936699999999998  2.1601900000000001 16.4962000000000018
  8.5427499999999998  0.1712760000000000 15.6633999999999993
  8.7627000000000006  2.8592399999999998 16.2747999999999990
  9.7726100000000002  0.8543040000000000 15.4284999999999997
  9.7883300000000002  2.2086299999999999 15.6382999999999992
 11.0692000000000004  0.1829580000000000 15.1710999999999991
 11.0771999999999995  2.8839800000000002 15.3360000000000003
 12.2902000000000005  0.8851810000000000 14.9077999999999999
 12.2509999999999994  2.2435399999999999 15.0282000000000000
 13.5183999999999997  0.1822680000000000 14.9495000000000005
 13.5576000000000008  2.8900500000000000 14.9992000000000001
 14.8143999999999991  0.8104930000000000 15.1085999999999991
 14.7639999999999993  2.1504900000000000 15.2105999999999995
 16.0550999999999995  0.1398070000000000 15.3292999999999999
 15.9699000000000009  2.8313199999999998 15.5913000000000004
 17.2927999999999997  0.8410900000000000 15.6303000000000001
 17.2307999999999986  2.2123400000000002 15.8021999999999991
 18.5122999999999998  0.1676820000000000 16.0028000000000006
 18.4308000000000014  2.8725600000000000 16.2088999999999999
 19.6595000000000013  0.8439390000000000 16.5362000000000009
 19.5613999999999990  2.1932700000000001 16.7158000000000015
 20.8536999999999999  0.1758130000000000 16.7978999999999985
 20.7052000000000014  2.8600500000000002 17.2273999999999994
 21.9472999999999985  0.8898790000000000 17.4432000000000009
 21.8813999999999993  2.2414499999999999 17.6505000000000010
 23.1370000000000005  0.1853860000000000 17.7574000000000005
 23.0427000000000000  2.8879600000000001 18.0439000000000007
 24.3259000000000007  0.8255740000000000 18.2622000000000000
 24.2223000000000006  2.1941799999999998 18.4122999999999983
 25.5702999999999996  0.1818160000000000 18.3560000000000016
 25.4866999999999990  2.8150200000000001 18.6168000000000013
 26.7867999999999995  0.8442250000000000 18.5363000000000007
 26.7073999999999998  2.1973199999999999 18.5971000000000011
  0.2399970000000000  4.8846699999999998 18.3579000000000008
  0.1942070000000000  6.2545099999999998 18.1204000000000001
  1.4388300000000001  4.2908200000000001 18.3653000000000013
  1.4333100000000001  6.8825599999999998 17.9866999999999990
  2.7274500000000002  4.9000599999999999 18.0557000000000016
  2.6472000000000002  6.2205399999999997 17.7296000000000014
  3.9399799999999998  4.2548800000000000 17.7871999999999986
  3.8241299999999998  6.9379000000000000 17.3241000000000014
  5.0756399999999999  4.9027900000000004 17.2250000000000014
  5.0608199999999997  6.2538400000000003 16.9601000000000006
  6.3224999999999998  4.2204800000000002 16.9232000000000014
  6.2151399999999999  6.9090400000000001 16.5074000000000005
  7.4782599999999997  4.9234000000000000 16.4423999999999992
  7.4365300000000003  6.2324299999999999 16.1830999999999996
  8.7126099999999997  4.2335900000000004 16.0770000000000017
  8.5974100000000000  6.9001599999999996 15.6287000000000003
  9.8662100000000006  4.9065500000000002 15.5320000000000000
  9.8287700000000005  6.2850999999999999 15.4273000000000007
 11.0533000000000001  4.2380000000000004 15.2655999999999992
 11.0568000000000008  6.9300899999999999 15.1433999999999997
 12.3013999999999992  4.8952600000000004 14.9765999999999995
 12.3004999999999995  6.2316300000000000 14.8452000000000002
 13.5806000000000004  4.2232300000000000 14.9115000000000002
 13.5067000000000004  6.9102300000000003 14.8783999999999992
 14.8252000000000006  4.8767600000000000 15.1877999999999993
 14.7820999999999998  6.2565000000000000 15.0792999999999999
 16.0562000000000005  4.2075500000000003 15.4276000000000000
 16.0303000000000004  6.8979400000000002 15.3232999999999997
 17.3016000000000005  4.8504399999999999 15.6797000000000004
 17.3033000000000001  6.2434300000000000 15.6075999999999997
 18.5033999999999992  4.2102100000000000 16.1325000000000003
 18.4803999999999995  6.9315300000000004 16.0505999999999993
 19.6763000000000012  4.9211999999999998 16.5913000000000004
 19.6946000000000012  6.2838900000000004 16.4514999999999993
 20.7673999999999985  4.2296600000000000 17.0960000000000001
 20.9007000000000005  6.9380300000000004 16.7132000000000005
 21.9848999999999997  4.9185600000000003 17.5032999999999994
 22.0316000000000010  6.2888299999999999 17.2823999999999991
 23.0789000000000009  4.2318800000000003 18.0397999999999996
 23.2156999999999982  6.9225500000000002 17.5889999999999986
 24.3143999999999991  4.8864900000000002 18.1859000000000002
 24.4146999999999998  6.2509499999999996 17.9110000000000014
 25.5127999999999986  4.1915399999999998 18.4527000000000001
 25.5820000000000007  6.9356299999999997 18.2146000000000008
 26.7566999999999986  4.8709300000000004 18.4583000000000013
 26.7761999999999993  6.2299600000000002 18.3249999999999993
