 C                                      
    1.000000000000000     
    28.0500000000000007    0.0000000000000000    0.0000000000000000
     0.0000000000000000    8.0999999999999996    0.0000000000000000
     0.0000000000000000    0.0000000000000000   33.5000000000000000
   C 
    92
Direct
     0.3436598930481267    0.5484876543209865    0.9636552238806004
     0.3449490196078457    0.7273049382716081    0.9642838805970158
     0.3853475935828854    0.4691320987654350    0.9541394029850778
     0.3880641711229913    0.8081271604938252    0.9607564179104457
     0.4276755793226386    0.5511222222222187    0.9426417910447782
     0.4292335115864532    0.7190197530864211    0.9477456716417905
     0.4700748663101635    0.4679888888888897    0.9318492537313432
     0.4725383244206753    0.8063024691358009    0.9393719402985070
     0.5123386809269164    0.5623493827160502    0.9201683582089544
     0.5155222816399316    0.7277469135802477    0.9240026865671638
     0.5559964349376116    0.4765999999999977    0.9089701492537330
     0.5586666666666673    0.8160172839506146    0.9118997014925370
     0.5966310160427781    0.5610432098765443    0.8909805970149236
     0.5966773618538355    0.7315716049382743    0.8925561194029825
     0.6415472370766508    0.4780604938271580    0.8823459701492524
     0.6405668449197890    0.8166049382716025    0.8842722388059698
     0.6852905525846680    0.5611604938271597    0.8763047761194045
     0.6856791443850270    0.7331259259259255    0.8794973134328359
     0.7285418894830684    0.4773481481481454    0.8725958208955191
     0.7304099821746917    0.8137604938271608    0.8771698507462702
     0.7735436720142630    0.5558851851851827    0.8689898507462672
     0.7730659536541893    0.7242148148148146    0.8713561194029822
     0.8200142602495575    0.4700419753086393    0.8632820895522357
     0.8189483065953667    0.8077234567901215    0.8721564179104462
     0.8660819964349358    0.5536037037037005    0.8659805970149250
     0.8655044563279830    0.7261617283950628    0.8705862686567158
     0.9107344028520501    0.4726419753086404    0.8704361194029886
     0.9079465240641724    0.8050925925925938    0.8854423880597011
     0.9546702317290539    0.5631543209876568    0.8771173134328336
     0.9523921568627429    0.7259876543209884    0.8886611940298508
     0.0000804930481308    0.4781666666666666    0.8831991044776117
     0.9943386809269157    0.8120666666666665    0.9013623880597024
     0.0424955436720111    0.5614185185185221    0.8961032835820930
     0.0380695187165756    0.7291358024691377    0.9055797014925346
     0.0838584670231697    0.4745925925925931    0.9065758208955259
     0.0781950089126582    0.8071061728395037    0.9219665671641764
     0.1233319073083763    0.5502444444444450    0.9242767164179071
     0.1224887700534794    0.7221851851851824    0.9291334328358190
     0.1651368983957227    0.4733061728395072    0.9391310447761185
     0.1652591800356475    0.8100703703703687    0.9396191044776145
     0.2076787878787911    0.5589975308641968    0.9478823880597034
     0.2090367201425991    0.7220197530864212    0.9463107462686580
     0.2499850267379671    0.4751320987654353    0.9583259701492537
     0.2513664884135451    0.8058259259259231    0.9606202985074646
     0.2931229946524070    0.5527938271604924    0.9641782089552251
     0.2928338680926927    0.7247753086419735    0.9668692537313461
     0.3441390374331519    0.0480549382716049    0.9761208955223850
     0.3448652406417096    0.2194012345679042    0.9708045074626881
     0.3884563279857431    0.9710716049382739    0.9669104477611938
     0.3866274509803915    0.3038222222222231    0.9614943283582065
     0.4320106951871665    0.0534844444444431    0.9600456716417938
     0.4313297682709418    0.2189148148148163    0.9561746268656748
     0.4749696969696942    0.9707135802469153    0.9470420895522409
     0.4735258467023158    0.2991666666666646    0.9403653731343269
     0.5197361853832447    0.0533003703703727    0.9371477611940264
     0.5185775401069534    0.2238938271604951    0.9303447761194050
     0.5590944741532979    0.9826481481481508    0.9162794029850758
     0.5582780748663083    0.3077777777777797    0.9130131343283594
     0.6028520499108723    0.0616879012345706    0.9037462686567181
     0.6032477718360099    0.2313370370370365    0.9022032835820895
     0.6435080213903746    0.9819395061728429    0.8938492537313465
     0.6443743315508002    0.3146925925925927    0.8898886567164155
     0.6880606060606027    0.0645361728395031    0.8897874626865701
     0.6885632798573980    0.2299567901234596    0.8845683582089521
     0.7310053475935803    0.9767283950617269    0.8851495522388078
     0.7314117647058822    0.3140666666666689    0.8783988059701500
     0.7745953654188966    0.0605134567901260    0.8832328358208983
     0.7754153297682720    0.2299938271604915    0.8784880597014890
     0.8193547237076615    0.9776654320987674    0.8780188059701501
     0.8199251336898428    0.3054839506172868    0.8709516417910450
     0.8638217468805678    0.0624827160493808    0.8818856716417898
     0.8650623885918023    0.2303320987654303    0.8746110447761168
     0.9065668449197872    0.9773358024691348    0.8885689552238816
     0.9092584670231716    0.3031283950617265    0.8774426865671643
     0.9508235294117640    0.0574256790123471    0.8946483582089542
     0.9520106951871625    0.2208740740740751    0.8866850746268682
     0.9920285204991117    0.9783061728395097    0.9053850746268637
     0.9967664884135488    0.3090802469135809    0.8886546268656730
     0.0357732620320874    0.0622597530864226    0.9137385074626891
     0.0381440285204988    0.2291345679012338    0.9037417910447729
     0.0775725490196066    0.9798604938271609    0.9274611940298527
     0.0816117647058832    0.3086395061728382    0.9105367164179086
     0.1215254901960776    0.0600559259259228    0.9361325373134335
     0.1225450980392182    0.2233172839506139    0.9276677611940300
     0.1647818181818153    0.9755308641975304    0.9466820895522403
     0.1643789661319062    0.3086975308642010    0.9399701492537318
     0.2044285204991070    0.0579665432098793    0.9601835820895488
     0.2041975044563245    0.2271641975308611    0.9541465671641802
     0.2485525846702288    0.9731592592592619    0.9667620895522404
     0.2493932263814642    0.3093259259259256    0.9613376119403014
     0.2893586452762946    0.0536096296296265    0.9755867462686538
     0.2915864527629211    0.2257530864197506    0.9732754029850739
 
  0.00000000E+00  0.00000000E+00  0.00000000E+00
  0.00000000E+00  0.00000000E+00  0.00000000E+00
  0.00000000E+00  0.00000000E+00  0.00000000E+00
  0.00000000E+00  0.00000000E+00  0.00000000E+00
  0.00000000E+00  0.00000000E+00  0.00000000E+00
  0.00000000E+00  0.00000000E+00  0.00000000E+00
  0.00000000E+00  0.00000000E+00  0.00000000E+00
  0.00000000E+00  0.00000000E+00  0.00000000E+00
  0.00000000E+00  0.00000000E+00  0.00000000E+00
  0.00000000E+00  0.00000000E+00  0.00000000E+00
  0.00000000E+00  0.00000000E+00  0.00000000E+00
  0.00000000E+00  0.00000000E+00  0.00000000E+00
  0.00000000E+00  0.00000000E+00  0.00000000E+00
  0.00000000E+00  0.00000000E+00  0.00000000E+00
  0.00000000E+00  0.00000000E+00  0.00000000E+00
  0.00000000E+00  0.00000000E+00  0.00000000E+00
  0.00000000E+00  0.00000000E+00  0.00000000E+00
  0.00000000E+00  0.00000000E+00  0.00000000E+00
  0.00000000E+00  0.00000000E+00  0.00000000E+00
  0.00000000E+00  0.00000000E+00  0.00000000E+00
  0.00000000E+00  0.00000000E+00  0.00000000E+00
  0.00000000E+00  0.00000000E+00  0.00000000E+00
  0.00000000E+00  0.00000000E+00  0.00000000E+00
  0.00000000E+00  0.00000000E+00  0.00000000E+00
  0.00000000E+00  0.00000000E+00  0.00000000E+00
  0.00000000E+00  0.00000000E+00  0.00000000E+00
  0.00000000E+00  0.00000000E+00  0.00000000E+00
  0.00000000E+00  0.00000000E+00  0.00000000E+00
  0.00000000E+00  0.00000000E+00  0.00000000E+00
  0.00000000E+00  0.00000000E+00  0.00000000E+00
  0.00000000E+00  0.00000000E+00  0.00000000E+00
  0.00000000E+00  0.00000000E+00  0.00000000E+00
  0.00000000E+00  0.00000000E+00  0.00000000E+00
  0.00000000E+00  0.00000000E+00  0.00000000E+00
  0.00000000E+00  0.00000000E+00  0.00000000E+00
  0.00000000E+00  0.00000000E+00  0.00000000E+00
  0.00000000E+00  0.00000000E+00  0.00000000E+00
  0.00000000E+00  0.00000000E+00  0.00000000E+00
  0.00000000E+00  0.00000000E+00  0.00000000E+00
  0.00000000E+00  0.00000000E+00  0.00000000E+00
  0.00000000E+00  0.00000000E+00  0.00000000E+00
  0.00000000E+00  0.00000000E+00  0.00000000E+00
  0.00000000E+00  0.00000000E+00  0.00000000E+00
  0.00000000E+00  0.00000000E+00  0.00000000E+00
  0.00000000E+00  0.00000000E+00  0.00000000E+00
  0.00000000E+00  0.00000000E+00  0.00000000E+00
  0.00000000E+00  0.00000000E+00  0.00000000E+00
  0.00000000E+00  0.00000000E+00  0.00000000E+00
  0.00000000E+00  0.00000000E+00  0.00000000E+00
  0.00000000E+00  0.00000000E+00  0.00000000E+00
  0.00000000E+00  0.00000000E+00  0.00000000E+00
  0.00000000E+00  0.00000000E+00  0.00000000E+00
  0.00000000E+00  0.00000000E+00  0.00000000E+00
  0.00000000E+00  0.00000000E+00  0.00000000E+00
  0.00000000E+00  0.00000000E+00  0.00000000E+00
  0.00000000E+00  0.00000000E+00  0.00000000E+00
  0.00000000E+00  0.00000000E+00  0.00000000E+00
  0.00000000E+00  0.00000000E+00  0.00000000E+00
  0.00000000E+00  0.00000000E+00  0.00000000E+00
  0.00000000E+00  0.00000000E+00  0.00000000E+00
  0.00000000E+00  0.00000000E+00  0.00000000E+00
  0.00000000E+00  0.00000000E+00  0.00000000E+00
  0.00000000E+00  0.00000000E+00  0.00000000E+00
  0.00000000E+00  0.00000000E+00  0.00000000E+00
  0.00000000E+00  0.00000000E+00  0.00000000E+00
  0.00000000E+00  0.00000000E+00  0.00000000E+00
  0.00000000E+00  0.00000000E+00  0.00000000E+00
  0.00000000E+00  0.00000000E+00  0.00000000E+00
  0.00000000E+00  0.00000000E+00  0.00000000E+00
  0.00000000E+00  0.00000000E+00  0.00000000E+00
  0.00000000E+00  0.00000000E+00  0.00000000E+00
  0.00000000E+00  0.00000000E+00  0.00000000E+00
  0.00000000E+00  0.00000000E+00  0.00000000E+00
  0.00000000E+00  0.00000000E+00  0.00000000E+00
  0.00000000E+00  0.00000000E+00  0.00000000E+00
  0.00000000E+00  0.00000000E+00  0.00000000E+00
  0.00000000E+00  0.00000000E+00  0.00000000E+00
  0.00000000E+00  0.00000000E+00  0.00000000E+00
  0.00000000E+00  0.00000000E+00  0.00000000E+00
  0.00000000E+00  0.00000000E+00  0.00000000E+00
  0.00000000E+00  0.00000000E+00  0.00000000E+00
  0.00000000E+00  0.00000000E+00  0.00000000E+00
  0.00000000E+00  0.00000000E+00  0.00000000E+00
  0.00000000E+00  0.00000000E+00  0.00000000E+00
  0.00000000E+00  0.00000000E+00  0.00000000E+00
  0.00000000E+00  0.00000000E+00  0.00000000E+00
  0.00000000E+00  0.00000000E+00  0.00000000E+00
  0.00000000E+00  0.00000000E+00  0.00000000E+00
  0.00000000E+00  0.00000000E+00  0.00000000E+00
  0.00000000E+00  0.00000000E+00  0.00000000E+00
  0.00000000E+00  0.00000000E+00  0.00000000E+00
  0.00000000E+00  0.00000000E+00  0.00000000E+00
