 C 
 1.0000000000000000
    28.0500000000000007    0.0000000000000000    0.0000000000000000
     0.0000000000000000    8.0999999999999996    0.0000000000000000
     0.0000000000000000    0.0000000000000000   33.5000000000000000
 C  
  92
Cartesian
 15.3995999999999995  6.7452699999999997 -16.2271999999999998
 15.4435000000000002  0.0349272000000000 -15.9582999999999995
 16.6259000000000015  6.0771699999999997 -16.1797000000000004
 16.6964000000000006  0.6525430000000000 -16.1441000000000017
 17.8621000000000016  6.7591700000000001 -16.1160999999999994
 17.9305999999999983  0.0315676000000000 -16.1265000000000001
 19.1224999999999987  6.1912000000000003 -16.0615999999999985
 19.1443000000000012  0.7161530000000000 -16.0091999999999999
 20.3418999999999990  6.8344800000000001 -15.7989999999999995
 20.3465999999999987  0.0648091000000000 -15.7939000000000007
 21.5864000000000011  6.1526300000000003 -15.6709999999999994
 21.6250999999999998  0.7634040000000000 -15.9036000000000008
 22.7444999999999986  6.8313100000000002 -15.4192999999999998
 22.8201999999999998  0.1137500000000000 -15.5733999999999995
 23.9271999999999991  6.1702599999999999 -15.1257000000000001
 24.0161000000000016  0.7681640000000000 -15.2683999999999997
 25.1053999999999995  6.7924800000000003 -14.6644000000000005
 25.1941999999999986  0.0921159000000000 -14.7425999999999995
 26.3279999999999994  6.1091600000000001 -14.3229000000000006
 26.3863999999999983  0.7012510000000000 -14.4741999999999997
 27.5421000000000014  6.8088400000000000 -14.0234000000000005
 27.5201999999999991  0.0622342000000000 -13.8833000000000002
  0.7904790000000000  6.1980899999999997 -13.9393999999999991
  0.7114350000000000  0.7020300000000000 -13.6821000000000002
  1.9616199999999999  6.8121700000000001 -13.4231999999999996
  1.9052600000000000  0.0751781000000000 -13.3382000000000005
  3.1394500000000001  6.1425000000000001 -13.3142999999999994
  3.1455400000000000  0.7230280000000000 -13.0681999999999992
  4.4024700000000001  6.7969099999999996 -13.2794000000000008
  4.3834799999999996  0.0620615000000000 -13.0284999999999993
  5.6693100000000003  6.1821500000000000 -13.4745000000000008
  5.6437400000000002  0.7092300000000000 -13.1929999999999996
  6.8630599999999999  6.7912299999999997 -13.8004999999999995
  6.8751800000000003  0.0363247000000000 -13.5534999999999997
  8.0352999999999994  6.1065899999999997 -14.2720000000000002
  8.0781600000000005  0.6768189999999999 -13.8377999999999997
  9.2638700000000007  6.7586599999999999 -14.4838000000000005
  9.3165300000000002  8.0720500000000008 -14.1229999999999993
 10.4382999999999999  6.0601300000000000 -14.9377999999999993
 10.4690999999999992  0.6420940000000001 -14.5563000000000002
 11.6123999999999992  6.7304300000000001 -15.2036999999999995
 11.6684000000000001  8.0984700000000007 -14.8518000000000008
 12.6979000000000006  6.0753800000000000 -15.8720999999999997
 12.8922000000000008  0.6742260000000000 -15.1881000000000004
 13.9824999999999999  6.7134000000000000 -15.8597999999999999
 14.0617000000000001  0.0150662000000000 -15.5951000000000004
 15.4335000000000004  2.6513000000000000 -16.1240999999999985
 15.3683999999999994  4.0663700000000000 -16.3307000000000002
 16.7022000000000013  2.0523300000000000 -16.2129000000000012
 16.6249000000000002  4.7228199999999996 -16.3398000000000003
 17.9200000000000017  2.7632200000000000 -16.2988000000000000
 17.8621000000000016  4.1533400000000000 -16.3745000000000012
 19.1467999999999989  2.0833200000000001 -16.3007999999999988
 19.1016000000000012  4.7885200000000001 -16.2068000000000012
 20.3687000000000005  2.8102700000000000 -16.1558999999999990
 20.3451999999999984  4.1437900000000001 -16.1090000000000018
 21.5944000000000003  2.1495000000000002 -15.9934999999999992
 21.5572000000000017  4.8121299999999998 -15.8606999999999996
 22.8296999999999990  2.7892199999999998 -15.6532999999999998
 22.8018000000000001  4.1424599999999998 -15.6313999999999993
 24.0638000000000005  2.1177199999999998 -15.3573000000000004
 24.0174999999999983  4.8168199999999999 -15.3894000000000002
 25.3016000000000005  2.7648400000000000 -15.1611999999999991
 25.2357000000000014  4.1452499999999999 -15.1033000000000008
 26.4517999999999986  2.0490400000000002 -14.7085000000000008
 26.4241999999999990  4.7778400000000003 -14.6831999999999994
 27.7088000000000001  2.7171300000000000 -14.5593000000000004
 27.6548000000000016  4.1300400000000002 -14.5746000000000002
  0.7649040000000000  2.0458900000000000 -13.9746000000000006
  0.7621360000000000  4.7983200000000004 -14.1646999999999998
  1.9587000000000001  2.7177600000000002 -13.8369999999999997
  1.9703200000000001  4.1384100000000004 -13.9216999999999995
  3.1459400000000000  2.0720600000000000 -13.3811999999999998
  3.1506500000000002  4.7808400000000004 -13.5029000000000003
  4.3509399999999996  2.7661899999999999 -13.3038000000000007
  4.4091699999999996  4.1323200000000000 -13.4890000000000008
  5.6393199999999997  2.0560999999999998 -13.3191000000000006
  5.6327699999999998  4.7769399999999997 -13.5515000000000008
  6.8115399999999999  2.6877599999999999 -13.8483000000000001
  6.8012800000000002  4.0833399999999997 -13.9886999999999997
  8.0234699999999997  2.0281600000000002 -14.0920000000000005
  8.0258400000000005  4.6816800000000001 -14.3344000000000005
  9.1801700000000004  2.6350199999999999 -14.5661000000000005
  9.1315299999999997  4.0174099999999999 -14.7776999999999994
 10.4608000000000008  2.0058699999999998 -14.7507000000000001
 10.3567999999999998  4.6952900000000000 -15.1069999999999993
 11.6417000000000002  2.7282400000000000 -15.1400000000000006
 11.5827000000000009  4.0641800000000003 -15.4245999999999999
 12.8772000000000002  2.0293000000000001 -15.3491999999999997
 12.7169000000000008  4.7334100000000001 -15.8993000000000002
 13.9741000000000000  2.7102200000000001 -15.8081999999999994
 13.9490999999999996  4.0915699999999999 -16.0885999999999996
