 C                                      
    1.000000000000000     
    28.0500000000000007    0.0000000000000000    0.0000000000000000
     0.0000000000000000    8.0999999999999996    0.0000000000000000
     0.0000000000000000    0.0000000000000000   33.5000000000000000
   C 
    92
Direct
     0.0090049910873446    0.0986713580246885    0.5158119402985051
     0.0075020677361834    0.2658493827160484    0.5128447761194010
     0.0515190730837816    0.0189261728395067    0.5080805970149243
     0.0475711229946540    0.3503654320987621    0.4982149253731336
     0.0905625668449233    0.1019028395061738    0.4891701492537308
     0.0889187165775382    0.2700469135802450    0.4847999999999999
     0.1358848484848494    0.0225739506172857    0.4820805970149280
     0.1305440285204966    0.3490296296296265    0.4690686567164164
     0.1770912655971486    0.1013696296296303    0.4648805970149255
     0.1730966131907294    0.2706654320987667    0.4556835820895557
     0.2220117647058828    0.0270446913580216    0.4612835820895498
     0.2187504456328000    0.3496049382716038    0.4507432835820921
     0.2658516934046347    0.1041302469135772    0.4534656716417942
     0.2649358288770074    0.2717246913580240    0.4483970149253764
     0.3098944741532961    0.0184069135802503    0.4546746268656747
     0.3097739750445641    0.3528641975308631    0.4456507462686545
     0.3539561497326176    0.1034333333333350    0.4557313432835812
     0.3550659536541900    0.2700111111111099    0.4480776119402989
     0.3966666666666683    0.0237046913580272    0.4676238805970172
     0.4012406417112331    0.3536061728395055    0.4518686567164210
     0.4402673796791419    0.1027271604938278    0.4714298507462686
     0.4436470588235295    0.2735975308641940    0.4622686567164180
     0.4803208556149698    0.0231576543209897    0.4873432835820921
     0.4877326203208554    0.3574271604938275    0.4703283582089526
     0.5226631016042802    0.1091523456790142    0.4987791044776131
     0.5254224598930506    0.2753074074074107    0.4892238805970166
     0.5628092691622086    0.0264069135802458    0.5140805970149245
     0.5672370766488442    0.3573629629629664    0.5007880597014918
     0.6067629233511553    0.1076602469135821    0.5233970149253722
     0.6099679144384993    0.2734172839506144    0.5116029850746244
     0.6505026737967938    0.0279379012345657    0.5331223880597022
     0.6535044563279868    0.3565370370370360    0.5179194029850720
     0.6972834224598898    0.1129154320987666    0.5366328358208960
     0.6961212121212128    0.2775901234567897    0.5279432835820899
     0.7417896613190749    0.0236954320987621    0.5425791044776105
     0.7401782531194314    0.3512543209876569    0.5324358208955218
     0.7860641711229945    0.1050267901234534    0.5433313432835831
     0.7844420677361867    0.2685444444444443    0.5362477611940264
     0.8303172905525855    0.0266943209876516    0.5513611940298517
     0.8282495543672042    0.3571382716049385    0.5385552238806000
     0.8741818181818175    0.1089219753086397    0.5471671641791076
     0.8725133689839595    0.2720728395061727    0.5384149253731323
     0.9184527629233514    0.0295208641975293    0.5421641791044749
     0.9159999999999968    0.3562209876543179    0.5293522388059699
     0.9586987522281660    0.1049244444444426    0.5289253731343280
     0.9591764705882326    0.2742061728395058    0.5246298507462654
     0.0117180035650648    0.5991851851851848    0.5218925373134340
     0.0132580748663074    0.7708740740740723    0.5258089552238800
     0.0486716577540136    0.5179111111111112    0.5013522388059712
     0.0535579322638142    0.8503543209876554    0.5133641791044781
     0.0926245989304846    0.6006888888888895    0.4914328358208948
     0.0943461675579300    0.7669246913580281    0.4988179104477624
     0.1316998217468779    0.5188185185185219    0.4730656716417911
     0.1363629233511574    0.8535814814814842    0.4848985074626881
     0.1764745098039242    0.5999086419753112    0.4667761194029865
     0.1783864527629220    0.7690814814814786    0.4720089552238775
     0.2194060606060617    0.5188506172839524    0.4538417910447734
     0.2212174688057047    0.8547148148148125    0.4632268656716434
     0.2652880570409977    0.6037913580246936    0.4522716417910431
     0.2649782531194305    0.7677950617283926    0.4579044776119403
     0.3105450980392135    0.5249555555555574    0.4466895522388086
     0.3094830659536569    0.8487160493827162    0.4599194029850722
     0.3539693404634576    0.6043012345678989    0.4509582089552211
     0.3540081996434949    0.7669975308641952    0.4602567164179092
     0.4005704099821727    0.5217370370370347    0.4534895522388069
     0.3961247771836014    0.8495703703703725    0.4678835820895557
     0.4410659536541885    0.6071925925925896    0.4639014925373104
     0.4384242424242402    0.7685604938271595    0.4772119402985098
     0.4862673796791412    0.5227728395061746    0.4702925373134335
     0.4810516934046376    0.8548679012345701    0.4881552238805966
     0.5258966131907314    0.6042481481481516    0.4880865671641814
     0.5236470588235278    0.7705086419753115    0.4975820895522389
     0.5725597147950054    0.5257567901234594    0.4982328358208932
     0.5642566844919799    0.8553172839506189    0.5114567164179107
     0.6147344028520507    0.6097481481481495    0.5077104477611911
     0.6096185383244190    0.7743283950617297    0.5194119402985109
     0.6557860962566835    0.5302728395061749    0.5170298507462689
     0.6494581105169317    0.8568888888888893    0.5346716417910429
     0.6977433155080206    0.6082938271604945    0.5322686567164183
     0.6945918003565055    0.7766506172839485    0.5396119402985065
     0.7412513368983937    0.5196839506172850    0.5363462686567146
     0.7390552584670260    0.8528061728395073    0.5493850746268691
     0.7842424242424215    0.6004888888888900    0.5444686567164183
     0.7820427807486610    0.7709888888888869    0.5529552238805948
     0.8289411764705861    0.5211530864197513    0.5403582089552259
     0.8281604278074894    0.8529901234567916    0.5538029850746256
     0.8745775401069551    0.6062148148148125    0.5417373134328329
     0.8749126559714782    0.7751913580246921    0.5475134328358209
     0.9182602495543648    0.5213296296296264    0.5334746268656687
     0.9198787878787869    0.8594037037037054    0.5462537313432847
     0.9616648841354731    0.6050197530864168    0.5324507462686583
     0.9627629233511570    0.7782024691358060    0.5415970149253724
 
  0.00000000E+00  0.00000000E+00  0.00000000E+00
  0.00000000E+00  0.00000000E+00  0.00000000E+00
  0.00000000E+00  0.00000000E+00  0.00000000E+00
  0.00000000E+00  0.00000000E+00  0.00000000E+00
  0.00000000E+00  0.00000000E+00  0.00000000E+00
  0.00000000E+00  0.00000000E+00  0.00000000E+00
  0.00000000E+00  0.00000000E+00  0.00000000E+00
  0.00000000E+00  0.00000000E+00  0.00000000E+00
  0.00000000E+00  0.00000000E+00  0.00000000E+00
  0.00000000E+00  0.00000000E+00  0.00000000E+00
  0.00000000E+00  0.00000000E+00  0.00000000E+00
  0.00000000E+00  0.00000000E+00  0.00000000E+00
  0.00000000E+00  0.00000000E+00  0.00000000E+00
  0.00000000E+00  0.00000000E+00  0.00000000E+00
  0.00000000E+00  0.00000000E+00  0.00000000E+00
  0.00000000E+00  0.00000000E+00  0.00000000E+00
  0.00000000E+00  0.00000000E+00  0.00000000E+00
  0.00000000E+00  0.00000000E+00  0.00000000E+00
  0.00000000E+00  0.00000000E+00  0.00000000E+00
  0.00000000E+00  0.00000000E+00  0.00000000E+00
  0.00000000E+00  0.00000000E+00  0.00000000E+00
  0.00000000E+00  0.00000000E+00  0.00000000E+00
  0.00000000E+00  0.00000000E+00  0.00000000E+00
  0.00000000E+00  0.00000000E+00  0.00000000E+00
  0.00000000E+00  0.00000000E+00  0.00000000E+00
  0.00000000E+00  0.00000000E+00  0.00000000E+00
  0.00000000E+00  0.00000000E+00  0.00000000E+00
  0.00000000E+00  0.00000000E+00  0.00000000E+00
  0.00000000E+00  0.00000000E+00  0.00000000E+00
  0.00000000E+00  0.00000000E+00  0.00000000E+00
  0.00000000E+00  0.00000000E+00  0.00000000E+00
  0.00000000E+00  0.00000000E+00  0.00000000E+00
  0.00000000E+00  0.00000000E+00  0.00000000E+00
  0.00000000E+00  0.00000000E+00  0.00000000E+00
  0.00000000E+00  0.00000000E+00  0.00000000E+00
  0.00000000E+00  0.00000000E+00  0.00000000E+00
  0.00000000E+00  0.00000000E+00  0.00000000E+00
  0.00000000E+00  0.00000000E+00  0.00000000E+00
  0.00000000E+00  0.00000000E+00  0.00000000E+00
  0.00000000E+00  0.00000000E+00  0.00000000E+00
  0.00000000E+00  0.00000000E+00  0.00000000E+00
  0.00000000E+00  0.00000000E+00  0.00000000E+00
  0.00000000E+00  0.00000000E+00  0.00000000E+00
  0.00000000E+00  0.00000000E+00  0.00000000E+00
  0.00000000E+00  0.00000000E+00  0.00000000E+00
  0.00000000E+00  0.00000000E+00  0.00000000E+00
  0.00000000E+00  0.00000000E+00  0.00000000E+00
  0.00000000E+00  0.00000000E+00  0.00000000E+00
  0.00000000E+00  0.00000000E+00  0.00000000E+00
  0.00000000E+00  0.00000000E+00  0.00000000E+00
  0.00000000E+00  0.00000000E+00  0.00000000E+00
  0.00000000E+00  0.00000000E+00  0.00000000E+00
  0.00000000E+00  0.00000000E+00  0.00000000E+00
  0.00000000E+00  0.00000000E+00  0.00000000E+00
  0.00000000E+00  0.00000000E+00  0.00000000E+00
  0.00000000E+00  0.00000000E+00  0.00000000E+00
  0.00000000E+00  0.00000000E+00  0.00000000E+00
  0.00000000E+00  0.00000000E+00  0.00000000E+00
  0.00000000E+00  0.00000000E+00  0.00000000E+00
  0.00000000E+00  0.00000000E+00  0.00000000E+00
  0.00000000E+00  0.00000000E+00  0.00000000E+00
  0.00000000E+00  0.00000000E+00  0.00000000E+00
  0.00000000E+00  0.00000000E+00  0.00000000E+00
  0.00000000E+00  0.00000000E+00  0.00000000E+00
  0.00000000E+00  0.00000000E+00  0.00000000E+00
  0.00000000E+00  0.00000000E+00  0.00000000E+00
  0.00000000E+00  0.00000000E+00  0.00000000E+00
  0.00000000E+00  0.00000000E+00  0.00000000E+00
  0.00000000E+00  0.00000000E+00  0.00000000E+00
  0.00000000E+00  0.00000000E+00  0.00000000E+00
  0.00000000E+00  0.00000000E+00  0.00000000E+00
  0.00000000E+00  0.00000000E+00  0.00000000E+00
  0.00000000E+00  0.00000000E+00  0.00000000E+00
  0.00000000E+00  0.00000000E+00  0.00000000E+00
  0.00000000E+00  0.00000000E+00  0.00000000E+00
  0.00000000E+00  0.00000000E+00  0.00000000E+00
  0.00000000E+00  0.00000000E+00  0.00000000E+00
  0.00000000E+00  0.00000000E+00  0.00000000E+00
  0.00000000E+00  0.00000000E+00  0.00000000E+00
  0.00000000E+00  0.00000000E+00  0.00000000E+00
  0.00000000E+00  0.00000000E+00  0.00000000E+00
  0.00000000E+00  0.00000000E+00  0.00000000E+00
  0.00000000E+00  0.00000000E+00  0.00000000E+00
  0.00000000E+00  0.00000000E+00  0.00000000E+00
  0.00000000E+00  0.00000000E+00  0.00000000E+00
  0.00000000E+00  0.00000000E+00  0.00000000E+00
  0.00000000E+00  0.00000000E+00  0.00000000E+00
  0.00000000E+00  0.00000000E+00  0.00000000E+00
  0.00000000E+00  0.00000000E+00  0.00000000E+00
  0.00000000E+00  0.00000000E+00  0.00000000E+00
  0.00000000E+00  0.00000000E+00  0.00000000E+00
  0.00000000E+00  0.00000000E+00  0.00000000E+00
