 C 
 1.0000000000000000
    28.0500000000000007    0.0000000000000000    0.0000000000000000
     0.0000000000000000    8.0999999999999996    0.0000000000000000
     0.0000000000000000    0.0000000000000000   33.5000000000000000
 C  
  92
Cartesian
  0.1822140000000000  0.8168410000000000 18.6677999999999997
  0.1740840000000000  2.2283499999999998 18.5702999999999996
  1.3600399999999999  0.1205510000000000 18.3183000000000007
  1.3880900000000000  2.8530799999999998 18.4211999999999989
  2.5308799999999998  0.8431500000000000 18.0039000000000016
  2.6365200000000000  2.2123800000000000 18.2219000000000015
  3.7677399999999999  0.2158590000000000 17.6499999999999986
  3.8572899999999999  2.9422999999999999 17.9813000000000009
  5.0248499999999998  0.8864040000000000 17.4872000000000014
  5.0602400000000003  2.2683100000000000 17.6890000000000001
  6.2133000000000003  0.1866260000000000 17.1127000000000002
  6.3148200000000001  2.9470700000000001 17.4131999999999998
  7.4792199999999998  0.8799570000000000 16.7811999999999983
  7.5162800000000001  2.2306599999999999 17.1424999999999983
  8.5537799999999997  0.2449560000000000 16.2372000000000014
  8.7172999999999998  2.8578100000000002 16.7280000000000015
  9.8795199999999994  0.8489580000000000 16.1069999999999993
  9.8925800000000006  2.1801499999999998 16.3759000000000015
 11.0452999999999992  0.1722310000000000 15.7436000000000007
 11.0929000000000002  2.8587400000000001 16.0450000000000017
 12.3146000000000004  0.8424100000000000 15.6781000000000006
 12.3036999999999992  2.1999100000000000 15.7664000000000009
 13.4833999999999996  0.1364100000000000 15.3315000000000001
 13.5375999999999994  2.8436400000000002 15.5274999999999999
 14.7312999999999992  0.7869370000000000 15.4087999999999994
 14.7673000000000005  2.1510899999999999 15.5648999999999997
 15.9969999999999999  0.1123630000000000 15.2995999999999999
 15.9519000000000002  2.8392300000000001 15.5299999999999994
 17.2381999999999991  0.7817530000000000 15.6172000000000004
 17.1826000000000008  2.1565500000000002 15.6754999999999995
 18.4597000000000016  0.1682570000000000 15.7809000000000008
 18.3823000000000008  2.8378800000000002 15.8709000000000007
 19.6326000000000001  0.8512670000000000 16.3094000000000001
 19.5669000000000004  2.2203400000000002 16.3276000000000003
 20.8316000000000017  0.2067020000000000 16.6210999999999984
 20.8280999999999992  2.9114700000000000 16.6174999999999997
 21.9950000000000010  0.8561310000000000 17.1571999999999996
 21.9767000000000010  2.2157900000000001 17.0935999999999986
 23.2325000000000017  0.1826940000000000 17.2479000000000013
 23.1787999999999990  2.9306899999999998 17.2855999999999987
 24.4485999999999990  0.8894720000000000 17.5588000000000015
 24.4350999999999985  2.2356799999999999 17.6552000000000007
 25.6464999999999996  0.1778090000000000 17.9822999999999986
 25.6314999999999991  2.8955600000000001 17.9932000000000016
 26.7640999999999991  0.8502960000000001 18.4758999999999993
 26.7638999999999996  2.2347600000000001 18.3345999999999982
  0.1448500000000000  4.8242399999999996 18.6297999999999995
  0.1326020000000000  6.2203299999999997 18.4822999999999986
  1.3183000000000000  4.2001999999999997 18.2982000000000014
  1.3265199999999999  6.8984100000000002 18.2332000000000001
  2.5598000000000001  4.8646799999999999 17.9116999999999997
  2.5495700000000001  6.2049599999999998 17.8822000000000010
  3.8569000000000000  4.2902500000000003 17.7677000000000014
  3.7850899999999998  6.9414699999999998 17.4573999999999998
  5.0414300000000001  4.9421799999999996 17.3887000000000000
  5.0046600000000003  6.2891800000000000 17.2117000000000004
  6.3006799999999998  4.2435000000000000 17.1298999999999992
  6.1895300000000004  6.9556199999999997 16.8108000000000004
  7.4846399999999997  4.9494400000000001 16.7231999999999985
  7.3583100000000004  6.2945700000000002 16.3252999999999986
  8.6902600000000003  4.2516900000000000 16.5474999999999994
  8.5776599999999998  6.9870799999999997 16.0075000000000003
  9.8486999999999991  4.9072800000000001 15.9650999999999996
  9.7980099999999997  6.2779400000000001 15.8094999999999999
 11.0467999999999993  4.2318400000000000 15.7818000000000005
 11.0594000000000001  6.9419500000000003 15.5103000000000009
 12.2738999999999994  4.8395700000000001 15.3668999999999993
 12.2682000000000002  6.2488700000000001 15.2487999999999992
 13.5139999999999993  4.1409900000000004 15.3116000000000003
 13.5147999999999993  6.8675899999999999 15.0798000000000005
 14.7622000000000000  4.8553699999999997 15.1737000000000002
 14.7788000000000004  6.2240599999999997 15.0385000000000009
 16.0008000000000017  4.1542599999999998 15.3352000000000004
 16.0311999999999983  6.8918400000000002 15.2010000000000005
 17.1969999999999992  4.8622600000000000 15.5010999999999992
 17.2425999999999995  6.2118399999999996 15.3991000000000007
 18.4022000000000006  4.2140000000000004 15.8490000000000002
 18.4925999999999995  6.8600700000000003 15.6202000000000005
 19.6963000000000008  4.8827900000000000 16.0223000000000013
 19.7209000000000003  6.2462000000000000 15.9273000000000007
 20.9497000000000000  4.2641600000000004 16.3039999999999985
 20.8594000000000008  6.9397700000000002 16.3780000000000001
 22.1993000000000009  4.9022500000000004 16.4690000000000012
 22.1523000000000003  6.2801600000000004 16.4981000000000009
 23.3175999999999988  4.2322899999999999 17.0243000000000002
 23.3062000000000005  6.9557700000000002 16.9862000000000002
 24.5015999999999998  4.9160500000000003 17.3131999999999984
 24.5407000000000011  6.2647500000000003 17.2237000000000009
 25.6043999999999983  4.2592299999999996 17.9751000000000012
 25.6506000000000007  6.9015399999999998 17.8267999999999986
 26.7194000000000003  4.8738700000000001 18.4074999999999989
 26.7745999999999995  6.2841500000000003 18.2373000000000012
