 C                                      
    1.000000000000000     
    28.0500000000000007    0.0000000000000000    0.0000000000000000
     0.0000000000000000    8.0999999999999996    0.0000000000000000
     0.0000000000000000    0.0000000000000000   33.5000000000000000
   C 
    92
Direct
     0.7215436720142634    0.3020197530864195    0.0773134328358189
     0.7222424242424239    0.4760851851851839    0.0773134328358189
     0.7656470588235322    0.2231320987654328    0.0770149253731311
     0.7661426024955418    0.5592419753086446    0.0794029850746298
     0.8093689839572207    0.3068938271604935    0.0853731343283570
     0.8100784313725455    0.4772358024691385    0.0871641791044802
     0.8543137254901936    0.2254061728395058    0.0850746268656692
     0.8552442067736195    0.5595666666666688    0.0871641791044802
     0.8989090909090933    0.3087814814814820    0.0838805970149252
     0.8992049910873448    0.4792407407407424    0.0847761194029815
     0.9432442067736204    0.2284382716049365    0.0737313432835833
     0.9429269162210332    0.5632382716049378    0.0770149253731311
     0.9872620320855603    0.3115296296296322    0.0689552238805966
     0.9871265597147953    0.4810456790123467    0.0698507462686564
     0.0289743315507991    0.2280765432098733    0.0567164179104509
     0.0286732620320862    0.5652790123456768    0.0561194029850789
     0.0718602495543692    0.3122962962962958    0.0486567164179128
     0.0714402852049929    0.4837345679012373    0.0489552238806006
     0.1132752228163980    0.2310901234567879    0.0343283582089597
     0.1124370766488383    0.5637543209876554    0.0340298507462720
     0.1569215686274532    0.3130061728395077    0.0256716417910425
     0.1571076648841370    0.4805111111111131    0.0259701492537303
     0.1988078431372529    0.2295753086419765    0.0146268656716444
     0.1982852049910875    0.5635148148148161    0.0125373134328370
     0.2417536541889476    0.3118839506172861    0.0122388059701528
     0.2427169340463493    0.4815802469135804    0.0113432835820930
     0.2864064171122962    0.2299000000000007    0.0062686567164185
     0.2862891265597156    0.5673864197530847    0.0029850746268636
     0.3307472370766504    0.3125654320987650    0.0071641791044783
     0.3299115864527664    0.4806814814814828    0.0038805970149305
     0.3747272727272701    0.2266518518518552    0.0020895522388038
     0.3748270944741563    0.5639296296296266    0.0005970149253720
     0.4184028520499083    0.3113370370370347    0.0074626865671661
     0.4179964349376135    0.4835753086419743    0.0068656716417905
     0.4625311942958987    0.2280444444444427    0.0092537313432821
     0.4615187165775367    0.5641320987654339    0.0098507462686541
     0.5045561497326219    0.3112827160493836    0.0208955223880629
     0.5042281639928703    0.4800703703703704    0.0214925373134349
     0.5485597147950116    0.2309271604938274    0.0271641791044814
     0.5469483065953682    0.5636086419753070    0.0283582089552255
     0.5894688057041009    0.3120493827160473    0.0435820895522419
     0.5886773618538328    0.4821851851851875    0.0432835820895541
     0.6317540106951895    0.2276061728395078    0.0501492537313446
     0.6320677361853839    0.5648506172839518    0.0489552238806006
     0.6704598930481254    0.3107197530864170    0.0659701492537330
     0.6721461675579334    0.4823827160493863    0.0659701492537330
     0.7249625668449227    0.8050061728395050    0.0567164179104509
     0.7264349376114083    0.9758222222222201    0.0561194029850789
     0.7670980392156892    0.7212753086419781    0.0686567164179088
     0.7676541889483062    0.0601379012345689    0.0662686567164208
     0.8109625668449212    0.8079691358024661    0.0701492537313406
     0.8113155080213872    0.9778395061728418    0.0689552238805966
     0.8537468805704123    0.7250172839506206    0.0782089552238787
     0.8541140819964355    0.0609828395061740    0.0755223880597029
     0.8973511586452787    0.8092938271604950    0.0728358208955235
     0.8973689839572216    0.9788567901234586    0.0725373134328393
     0.9412905525846682    0.7286197530864200    0.0686567164179088
     0.9408663101604304    0.0629374074074107    0.0665671641791050
     0.9834010695187132    0.8125827160493841    0.0552238805970120
     0.9836684491978644    0.9803654320987647    0.0555223880596998
     0.0258406417112269    0.7293345679012333    0.0468656716417897
     0.0265206417112296    0.0631497530864209    0.0477611940298495
     0.0676584670231719    0.8135617283950651    0.0322388059701488
     0.0679572192513334    0.9812234567901257    0.0319402985074611
     0.1105458110516935    0.7282580246913568    0.0238805970149230
     0.1115040998217438    0.0659217283950611    0.0256716417910425
     0.1529155080213869    0.8120975308642002    0.0110447761194017
     0.1530367201426017    0.9828493827160472    0.0122388059701528
     0.1964074866310170    0.7318493827160495    0.0047761194029867
     0.1969140819964323    0.0621891358024698    0.0080597014925381
     0.2401390374331527    0.8118296296296279    0.9967164179104486
     0.2399754010695219    0.9820753086419742    0.9973134328358242
     0.2859814616755827    0.7302382716049394    0.9952238805970097
     0.2857169340463486    0.0675066666666666    0.9958208955223853
     0.3300894830659544    0.8157617283950600    0.9898507462686581
     0.3301076648841388    0.9875123456790149    0.9895522388059703
     0.3742139037433176    0.7315629629629612    0.9925373134328339
     0.3750196078431358    0.0628600000000006    0.9925373134328339
     0.4193903743315488    0.8120222222222253    0.9922388059701532
     0.4188591800356534    0.9801703703703737    0.9919402985074655
     0.4628377896613216    0.7302530864197507    0.0020895522388038
     0.4638573975044551    0.0629295061728428    0.9994029850746315
     0.5076862745098012    0.8092666666666659    0.0038805970149305
     0.5070837789661340    0.9818901234567932    0.0053731343283623
     0.5499750445632827    0.7287444444444446    0.0173134328358202
     0.5502032085561481    0.0647308641975286    0.0176119402985044
     0.5924848484848511    0.8128728395061700    0.0250746268656705
     0.5935757575757563    0.9828814814814848    0.0244776119402985
     0.6334188948306618    0.7262382716049416    0.0376119402985076
     0.6338966131907284    0.0661541975308637    0.0394029850746271
     0.6755294117647068    0.8053037037037072    0.0444776119402981
     0.6757896613190724    0.9772654320987684    0.0450746268656737
 
  0.00000000E+00  0.00000000E+00  0.00000000E+00
  0.00000000E+00  0.00000000E+00  0.00000000E+00
  0.00000000E+00  0.00000000E+00  0.00000000E+00
  0.00000000E+00  0.00000000E+00  0.00000000E+00
  0.00000000E+00  0.00000000E+00  0.00000000E+00
  0.00000000E+00  0.00000000E+00  0.00000000E+00
  0.00000000E+00  0.00000000E+00  0.00000000E+00
  0.00000000E+00  0.00000000E+00  0.00000000E+00
  0.00000000E+00  0.00000000E+00  0.00000000E+00
  0.00000000E+00  0.00000000E+00  0.00000000E+00
  0.00000000E+00  0.00000000E+00  0.00000000E+00
  0.00000000E+00  0.00000000E+00  0.00000000E+00
  0.00000000E+00  0.00000000E+00  0.00000000E+00
  0.00000000E+00  0.00000000E+00  0.00000000E+00
  0.00000000E+00  0.00000000E+00  0.00000000E+00
  0.00000000E+00  0.00000000E+00  0.00000000E+00
  0.00000000E+00  0.00000000E+00  0.00000000E+00
  0.00000000E+00  0.00000000E+00  0.00000000E+00
  0.00000000E+00  0.00000000E+00  0.00000000E+00
  0.00000000E+00  0.00000000E+00  0.00000000E+00
  0.00000000E+00  0.00000000E+00  0.00000000E+00
  0.00000000E+00  0.00000000E+00  0.00000000E+00
  0.00000000E+00  0.00000000E+00  0.00000000E+00
  0.00000000E+00  0.00000000E+00  0.00000000E+00
  0.00000000E+00  0.00000000E+00  0.00000000E+00
  0.00000000E+00  0.00000000E+00  0.00000000E+00
  0.00000000E+00  0.00000000E+00  0.00000000E+00
  0.00000000E+00  0.00000000E+00  0.00000000E+00
  0.00000000E+00  0.00000000E+00  0.00000000E+00
  0.00000000E+00  0.00000000E+00  0.00000000E+00
  0.00000000E+00  0.00000000E+00  0.00000000E+00
  0.00000000E+00  0.00000000E+00  0.00000000E+00
  0.00000000E+00  0.00000000E+00  0.00000000E+00
  0.00000000E+00  0.00000000E+00  0.00000000E+00
  0.00000000E+00  0.00000000E+00  0.00000000E+00
  0.00000000E+00  0.00000000E+00  0.00000000E+00
  0.00000000E+00  0.00000000E+00  0.00000000E+00
  0.00000000E+00  0.00000000E+00  0.00000000E+00
  0.00000000E+00  0.00000000E+00  0.00000000E+00
  0.00000000E+00  0.00000000E+00  0.00000000E+00
  0.00000000E+00  0.00000000E+00  0.00000000E+00
  0.00000000E+00  0.00000000E+00  0.00000000E+00
  0.00000000E+00  0.00000000E+00  0.00000000E+00
  0.00000000E+00  0.00000000E+00  0.00000000E+00
  0.00000000E+00  0.00000000E+00  0.00000000E+00
  0.00000000E+00  0.00000000E+00  0.00000000E+00
  0.00000000E+00  0.00000000E+00  0.00000000E+00
  0.00000000E+00  0.00000000E+00  0.00000000E+00
  0.00000000E+00  0.00000000E+00  0.00000000E+00
  0.00000000E+00  0.00000000E+00  0.00000000E+00
  0.00000000E+00  0.00000000E+00  0.00000000E+00
  0.00000000E+00  0.00000000E+00  0.00000000E+00
  0.00000000E+00  0.00000000E+00  0.00000000E+00
  0.00000000E+00  0.00000000E+00  0.00000000E+00
  0.00000000E+00  0.00000000E+00  0.00000000E+00
  0.00000000E+00  0.00000000E+00  0.00000000E+00
  0.00000000E+00  0.00000000E+00  0.00000000E+00
  0.00000000E+00  0.00000000E+00  0.00000000E+00
  0.00000000E+00  0.00000000E+00  0.00000000E+00
  0.00000000E+00  0.00000000E+00  0.00000000E+00
  0.00000000E+00  0.00000000E+00  0.00000000E+00
  0.00000000E+00  0.00000000E+00  0.00000000E+00
  0.00000000E+00  0.00000000E+00  0.00000000E+00
  0.00000000E+00  0.00000000E+00  0.00000000E+00
  0.00000000E+00  0.00000000E+00  0.00000000E+00
  0.00000000E+00  0.00000000E+00  0.00000000E+00
  0.00000000E+00  0.00000000E+00  0.00000000E+00
  0.00000000E+00  0.00000000E+00  0.00000000E+00
  0.00000000E+00  0.00000000E+00  0.00000000E+00
  0.00000000E+00  0.00000000E+00  0.00000000E+00
  0.00000000E+00  0.00000000E+00  0.00000000E+00
  0.00000000E+00  0.00000000E+00  0.00000000E+00
  0.00000000E+00  0.00000000E+00  0.00000000E+00
  0.00000000E+00  0.00000000E+00  0.00000000E+00
  0.00000000E+00  0.00000000E+00  0.00000000E+00
  0.00000000E+00  0.00000000E+00  0.00000000E+00
  0.00000000E+00  0.00000000E+00  0.00000000E+00
  0.00000000E+00  0.00000000E+00  0.00000000E+00
  0.00000000E+00  0.00000000E+00  0.00000000E+00
  0.00000000E+00  0.00000000E+00  0.00000000E+00
  0.00000000E+00  0.00000000E+00  0.00000000E+00
  0.00000000E+00  0.00000000E+00  0.00000000E+00
  0.00000000E+00  0.00000000E+00  0.00000000E+00
  0.00000000E+00  0.00000000E+00  0.00000000E+00
  0.00000000E+00  0.00000000E+00  0.00000000E+00
  0.00000000E+00  0.00000000E+00  0.00000000E+00
  0.00000000E+00  0.00000000E+00  0.00000000E+00
  0.00000000E+00  0.00000000E+00  0.00000000E+00
  0.00000000E+00  0.00000000E+00  0.00000000E+00
  0.00000000E+00  0.00000000E+00  0.00000000E+00
  0.00000000E+00  0.00000000E+00  0.00000000E+00
  0.00000000E+00  0.00000000E+00  0.00000000E+00
