 C 
 1.0000000000000000
    28.0500000000000007    0.0000000000000000    0.0000000000000000
     0.0000000000000000    8.0999999999999996    0.0000000000000000
     0.0000000000000000    0.0000000000000000   33.5000000000000000
 C  
  92
Cartesian
 20.2393000000000001  2.4463599999999999 -1069.4100000000000819
 20.2589000000000006  3.8562900000000000 -1069.4100000000000819
 21.4764000000000017  1.8073699999999999 -1069.4200000000000728
 21.4903000000000013  4.5298600000000002 -1069.3399999999999181
 22.7027999999999999  2.4858400000000000 -1069.1400000000001000
 22.7226999999999997  3.8656100000000002 -1069.0799999999999272
 23.9634999999999998  1.8257900000000000 -1069.1500000000000909
 23.9895999999999994  4.5324900000000001 -1069.0799999999999272
 25.2144000000000013  2.5011299999999999 -1069.1900000000000546
 25.2226999999999997  3.8818500000000000 -1069.1600000000000819
 26.4579999999999984  1.8503499999999999 -1069.5299999999999727
 26.4491000000000014  4.5622299999999996 -1069.4200000000000728
 27.6926999999999985  2.5233900000000000 -1069.6900000000000546
 27.6889000000000003  3.8964699999999999 -1069.6600000000000819
  0.8127300000000000  1.8474200000000001 -1070.0999999999999091
  0.8042850000000000  4.5787599999999999 -1070.1199999999998909
  2.0156800000000001  2.5295999999999998 -1070.3699999999998909
  2.0038999999999998  3.9182500000000000 -1070.3599999999999000
  3.1773699999999998  1.8718300000000001 -1070.8499999999999091
  3.1538599999999999  4.5664100000000003 -1070.8599999999999000
  4.4016500000000001  2.5353500000000002 -1071.1400000000001000
  4.4068699999999996  3.8921399999999999 -1071.1300000000001091
  5.5765599999999997  1.8595600000000001 -1071.5099999999999909
  5.5618999999999996  4.5644700000000000 -1071.5799999999999272
  6.7811899999999996  2.5262600000000002 -1071.5899999999999181
  6.8082099999999999  3.9007999999999998 -1071.6199999999998909
  8.0336999999999996  1.8621900000000000 -1071.7899999999999636
  8.0304099999999998  4.5958300000000003 -1071.9000000000000909
  9.2774599999999996  2.5317799999999999 -1071.7599999999999909
  9.2540200000000006  3.8935200000000001 -1071.8699999999998909
 10.5111000000000008  1.8358800000000000 -1071.9300000000000637
 10.5138999999999996  4.5678299999999998 -1071.9800000000000182
 11.7362000000000002  2.5218300000000000 -1071.7500000000000000
 11.7248000000000001  3.9169600000000000 -1071.7699999999999818
 12.9740000000000002  1.8471599999999999 -1071.6900000000000546
 12.9456000000000007  4.5694699999999999 -1071.6700000000000728
 14.1527999999999992  2.5213899999999998 -1071.2999999999999545
 14.1435999999999993  3.8885700000000001 -1071.2799999999999727
 15.3871000000000002  1.8705099999999999 -1071.0899999999999181
 15.3419000000000008  4.5652299999999997 -1071.0499999999999545
 16.5346000000000011  2.5276000000000001 -1070.5399999999999636
 16.5123999999999995  3.9056999999999999 -1070.5499999999999545
 17.7207000000000008  1.8436100000000000 -1070.3199999999999363
 17.7295000000000016  4.5752899999999999 -1070.3599999999999000
 18.8064000000000000  2.5168300000000001 -1069.7899999999999636
 18.8536999999999999  3.9073000000000002 -1069.7899999999999636
 20.3352000000000004  6.5205500000000001 -1070.0999999999999091
 20.3765000000000001  7.9041600000000001 -1070.1199999999998909
 21.5170999999999992  5.8423299999999996 -1069.7000000000000455
 21.5326999999999984  0.4871170000000000 -1069.7799999999999727
 22.7474999999999987  6.5445500000000001 -1069.6500000000000909
 22.7574000000000005  7.9204999999999997 -1069.6900000000000546
 23.9476000000000013  5.8726399999999996 -1069.3800000000001091
 23.9578999999999986  0.4939610000000000 -1069.4700000000000273
 25.1707000000000001  6.5552799999999998 -1069.5599999999999454
 25.1711999999999989  7.9287400000000003 -1069.5699999999999363
 26.4031999999999982  5.9018199999999998 -1069.7000000000000455
 26.3913000000000011  0.5097930000000001 -1069.7699999999999818
 27.5843999999999987  6.5819200000000002 -1070.1500000000000909
 27.5918999999999990  7.9409599999999996 -1070.1400000000001000
  0.7248300000000000  5.9076100000000000 -1070.4300000000000637
  0.7439040000000000  0.5115130000000000 -1070.4000000000000909
  1.8978200000000001  6.5898500000000002 -1070.9200000000000728
  1.9061999999999999  7.9479100000000003 -1070.9300000000000637
  3.1008100000000001  5.8988899999999997 -1071.2000000000000455
  3.1276899999999999  0.5339660000000001 -1071.1400000000001000
  4.2892799999999998  6.5779899999999998 -1071.6300000000001091
  4.2926799999999998  7.9610799999999999 -1071.5899999999999181
  5.5092299999999996  5.9279799999999998 -1071.8399999999999181
  5.5234399999999999  0.5037320000000000 -1071.7300000000000182
  6.7359000000000000  6.5758200000000002 -1072.1099999999999000
  6.7313099999999997  7.9548100000000002 -1072.0899999999999181
  8.0217799999999997  5.9149300000000000 -1072.1600000000000819
  8.0143599999999999  0.5468040000000000 -1072.1400000000001000
  9.2590100000000000  6.6076699999999997 -1072.3399999999999181
  9.2595200000000002  7.9988500000000000 -1072.3499999999999091
 10.4967000000000006  5.9256599999999997 -1072.2500000000000000
 10.5192999999999994  0.5091660000000000 -1072.2500000000000000
 11.7638999999999996  6.5773799999999998 -1072.2599999999999909
 11.7490000000000006  7.9393799999999999 -1072.2699999999999818
 12.9825999999999997  5.9150499999999999 -1071.9300000000000637
 13.0112000000000005  0.5097290000000000 -1072.0199999999999818
 14.2406000000000006  6.5550600000000001 -1071.8699999999998909
 14.2236999999999991  7.9533100000000001 -1071.8199999999999363
 15.4268000000000001  5.9028299999999998 -1071.4200000000000728
 15.4331999999999994  0.5243200000000000 -1071.4100000000000819
 16.6191999999999993  6.5842700000000001 -1071.1600000000000819
 16.6497999999999990  7.9613399999999999 -1071.1800000000000637
 17.7673999999999985  5.8825300000000000 -1070.7400000000000091
 17.7807999999999993  0.5358490000000000 -1070.6800000000000637
 18.9485999999999990  6.5229600000000003 -1070.5099999999999909
 18.9558999999999997  7.9158499999999998 -1070.4900000000000091
