 C                                      
    1.000000000000000     
    28.0500000000000007    0.0000000000000000    0.0000000000000000
     0.0000000000000000    8.0999999999999996    0.0000000000000000
     0.0000000000000000    0.0000000000000000   33.5000000000000000
   C 
    92
Direct
     0.3845811051693389    0.6045962962962932    0.8933537313432822
     0.3857932263814590    0.7704555555555572    0.8993185074626879
     0.4232014260249528    0.5274814814814803    0.8736364179104470
     0.4278110516934035    0.8527185185185218    0.8905817910447738
     0.4658752228164005    0.6059419753086388    0.8683955223880631
     0.4693262032085528    0.7714654320987648    0.8786119402985051
     0.5082531194295896    0.5300000000000011    0.8538850746268665
     0.5113547237076617    0.8591925925925921    0.8662223880597040
     0.5488663101604274    0.6130123456790102    0.8386531343283607
     0.5521532976827075    0.7739061728395029    0.8507385074626868
     0.5903957219251339    0.5352543209876544    0.8260008955223910
     0.5954545454545439    0.8643506172839537    0.8435952238805982
     0.6348698752228188    0.6181395061728381    0.8192820895522388
     0.6372762923351161    0.7838506172839530    0.8276301492537286
     0.6792442067736175    0.5337629629629603    0.8114564179104491
     0.6802210338680936    0.8649172839506178    0.8272868656716383
     0.7243208556149767    0.6152740740740725    0.8058388059701471
     0.7245775401069494    0.7815950617283960    0.8154728358208985
     0.7686987522281612    0.5351259259259251    0.8032916417910414
     0.7688912655971478    0.8637209876543182    0.8119537313432801
     0.8144527629233522    0.6132345679012374    0.8005364179104504
     0.8143244206773588    0.7810888888888883    0.8014788059701488
     0.8596363636363620    0.5232950617283976    0.8007364179104499
     0.8591836007130098    0.8677851851851841    0.8052540298507438
     0.9059215686274484    0.6147753086419740    0.8063241791044788
     0.9035151515151512    0.7810234567901233    0.8087202985074597
     0.9494295900178287    0.5296765432098738    0.8132104477611932
     0.9470303030303029    0.8660790123456792    0.8181549253731362
     0.9918859180035682    0.6120802469135782    0.8243799999999979
     0.9896327985739717    0.7812604938271619    0.8287346268656748
     0.0330579679144378    0.5234049382716037    0.8341205970149232
     0.0302469875222826    0.8608493827160473    0.8489202985074655
     0.0745518716577536    0.6041345679012338    0.8497271641791073
     0.0721654188948335    0.7716518518518498    0.8592982089552237
     0.1191793226381463    0.5213185185185196    0.8574901492537279
     0.1155475935828889    0.8544049382716068    0.8740334328358230
     0.1614210338680948    0.6078938271604954    0.8670546268656736
     0.1589426024955429    0.7697876543209858    0.8802020895522418
     0.2029408199643470    0.5183975308641990    0.8748871641791069
     0.2014566844919798    0.8531691358024673    0.8927388059701471
     0.2454331550802138    0.6022975308641989    0.8859062686567185
     0.2453967914438522    0.7658135802469133    0.8972095522388059
     0.2899240641711245    0.5216987654320988    0.8866170149253705
     0.2887811051693419    0.8506111111111139    0.9074632835820893
     0.3320003565062422    0.6004456790123456    0.8962826865671616
     0.3324784313725502    0.7686641975308675    0.9038605970149263
     0.3851087344028485    0.0994434567901266    0.8920561194029872
     0.3821604278074844    0.2679395061728371    0.8850182089552234
     0.4276862745098029    0.0220061728395038    0.8937119402985090
     0.4233868092691608    0.3493320987654300    0.8728626865671671
     0.4692228163992880    0.1086651851851883    0.8773188059701482
     0.4657290552584641    0.2700839506172841    0.8652647761194032
     0.5101853832442060    0.0263207407407435    0.8671958208955246
     0.5056577540106986    0.3612172839506158    0.8509504477611927
     0.5533190730837774    0.1167260493827129    0.8571113432835844
     0.5516862745098052    0.2822246913580244    0.8463931343283591
     0.5961532976827115    0.0329574074074088    0.8456680597014952
     0.5928092691622098    0.3685716049382748    0.8315829850746255
     0.6397789661319067    0.1151943209876549    0.8383928358208976
     0.6387130124777158    0.2814950617283927    0.8305143283582055
     0.6828841354723707    0.0353427160493851    0.8301104477611929
     0.6802210338680936    0.3641049382716020    0.8189444776119430
     0.7257112299465263    0.1174879012345684    0.8236047761194030
     0.7271479500891260    0.2841197530864221    0.8185579104477583
     0.7699180035650599    0.0340546913580226    0.8177486567164181
     0.7708948306595360    0.3654839506172820    0.8094438805970157
     0.8146096256684459    0.1120454320987676    0.8140328358208961
     0.8148484848484827    0.2841419753086427    0.8072313432835827
     0.8586666666666645    0.0350106172839517    0.8094608955223848
     0.8593119429590033    0.3611320987654310    0.8012698507462659
     0.9031978609625639    0.1165806172839510    0.8150955223880629
     0.9045704099821776    0.2798925925925957    0.8082546268656685
     0.9453262032085590    0.0388639506172836    0.8228235820895549
     0.9470160427807457    0.3596246913580217    0.8124564179104468
     0.9879001782531205    0.1112550617283929    0.8349614925373103
     0.9910659536541857    0.2746592592592592    0.8293889552238838
     0.0300883065953670    0.0301104938271592    0.8504182089552259
     0.0317777896613194    0.3560518518518521    0.8387820895522395
     0.0720331550802129    0.1045671604938292    0.8636788059701459
     0.0721889483065965    0.2700753086419780    0.8550623880597001
     0.1147493761140836    0.0241917283950599    0.8760092537313398
     0.1164256684491960    0.3531493827160475    0.8603558208955207
     0.1581037433155075    0.1053653086419786    0.8860501492537338
     0.1578983957219222    0.2737827160493822    0.8752677611940314
     0.1999696969696956    0.0229898765432068    0.8975638805970121
     0.2017219251336897    0.3540222222222198    0.8746492537313415
     0.2441329768270961    0.1055858024691361    0.8986531343283559
     0.2458092691622085    0.2674024691358028    0.8876101492537316
     0.2896980392156863    0.0214307407407404    0.9086158208955197
     0.2914645276292305    0.3498493827160516    0.8888110447761193
     0.3338406417112267    0.0925651851851867    0.9030098507462654
     0.3339169340463428    0.2656271604938283    0.8952483582089528
 
  0.00000000E+00  0.00000000E+00  0.00000000E+00
  0.00000000E+00  0.00000000E+00  0.00000000E+00
  0.00000000E+00  0.00000000E+00  0.00000000E+00
  0.00000000E+00  0.00000000E+00  0.00000000E+00
  0.00000000E+00  0.00000000E+00  0.00000000E+00
  0.00000000E+00  0.00000000E+00  0.00000000E+00
  0.00000000E+00  0.00000000E+00  0.00000000E+00
  0.00000000E+00  0.00000000E+00  0.00000000E+00
  0.00000000E+00  0.00000000E+00  0.00000000E+00
  0.00000000E+00  0.00000000E+00  0.00000000E+00
  0.00000000E+00  0.00000000E+00  0.00000000E+00
  0.00000000E+00  0.00000000E+00  0.00000000E+00
  0.00000000E+00  0.00000000E+00  0.00000000E+00
  0.00000000E+00  0.00000000E+00  0.00000000E+00
  0.00000000E+00  0.00000000E+00  0.00000000E+00
  0.00000000E+00  0.00000000E+00  0.00000000E+00
  0.00000000E+00  0.00000000E+00  0.00000000E+00
  0.00000000E+00  0.00000000E+00  0.00000000E+00
  0.00000000E+00  0.00000000E+00  0.00000000E+00
  0.00000000E+00  0.00000000E+00  0.00000000E+00
  0.00000000E+00  0.00000000E+00  0.00000000E+00
  0.00000000E+00  0.00000000E+00  0.00000000E+00
  0.00000000E+00  0.00000000E+00  0.00000000E+00
  0.00000000E+00  0.00000000E+00  0.00000000E+00
  0.00000000E+00  0.00000000E+00  0.00000000E+00
  0.00000000E+00  0.00000000E+00  0.00000000E+00
  0.00000000E+00  0.00000000E+00  0.00000000E+00
  0.00000000E+00  0.00000000E+00  0.00000000E+00
  0.00000000E+00  0.00000000E+00  0.00000000E+00
  0.00000000E+00  0.00000000E+00  0.00000000E+00
  0.00000000E+00  0.00000000E+00  0.00000000E+00
  0.00000000E+00  0.00000000E+00  0.00000000E+00
  0.00000000E+00  0.00000000E+00  0.00000000E+00
  0.00000000E+00  0.00000000E+00  0.00000000E+00
  0.00000000E+00  0.00000000E+00  0.00000000E+00
  0.00000000E+00  0.00000000E+00  0.00000000E+00
  0.00000000E+00  0.00000000E+00  0.00000000E+00
  0.00000000E+00  0.00000000E+00  0.00000000E+00
  0.00000000E+00  0.00000000E+00  0.00000000E+00
  0.00000000E+00  0.00000000E+00  0.00000000E+00
  0.00000000E+00  0.00000000E+00  0.00000000E+00
  0.00000000E+00  0.00000000E+00  0.00000000E+00
  0.00000000E+00  0.00000000E+00  0.00000000E+00
  0.00000000E+00  0.00000000E+00  0.00000000E+00
  0.00000000E+00  0.00000000E+00  0.00000000E+00
  0.00000000E+00  0.00000000E+00  0.00000000E+00
  0.00000000E+00  0.00000000E+00  0.00000000E+00
  0.00000000E+00  0.00000000E+00  0.00000000E+00
  0.00000000E+00  0.00000000E+00  0.00000000E+00
  0.00000000E+00  0.00000000E+00  0.00000000E+00
  0.00000000E+00  0.00000000E+00  0.00000000E+00
  0.00000000E+00  0.00000000E+00  0.00000000E+00
  0.00000000E+00  0.00000000E+00  0.00000000E+00
  0.00000000E+00  0.00000000E+00  0.00000000E+00
  0.00000000E+00  0.00000000E+00  0.00000000E+00
  0.00000000E+00  0.00000000E+00  0.00000000E+00
  0.00000000E+00  0.00000000E+00  0.00000000E+00
  0.00000000E+00  0.00000000E+00  0.00000000E+00
  0.00000000E+00  0.00000000E+00  0.00000000E+00
  0.00000000E+00  0.00000000E+00  0.00000000E+00
  0.00000000E+00  0.00000000E+00  0.00000000E+00
  0.00000000E+00  0.00000000E+00  0.00000000E+00
  0.00000000E+00  0.00000000E+00  0.00000000E+00
  0.00000000E+00  0.00000000E+00  0.00000000E+00
  0.00000000E+00  0.00000000E+00  0.00000000E+00
  0.00000000E+00  0.00000000E+00  0.00000000E+00
  0.00000000E+00  0.00000000E+00  0.00000000E+00
  0.00000000E+00  0.00000000E+00  0.00000000E+00
  0.00000000E+00  0.00000000E+00  0.00000000E+00
  0.00000000E+00  0.00000000E+00  0.00000000E+00
  0.00000000E+00  0.00000000E+00  0.00000000E+00
  0.00000000E+00  0.00000000E+00  0.00000000E+00
  0.00000000E+00  0.00000000E+00  0.00000000E+00
  0.00000000E+00  0.00000000E+00  0.00000000E+00
  0.00000000E+00  0.00000000E+00  0.00000000E+00
  0.00000000E+00  0.00000000E+00  0.00000000E+00
  0.00000000E+00  0.00000000E+00  0.00000000E+00
  0.00000000E+00  0.00000000E+00  0.00000000E+00
  0.00000000E+00  0.00000000E+00  0.00000000E+00
  0.00000000E+00  0.00000000E+00  0.00000000E+00
  0.00000000E+00  0.00000000E+00  0.00000000E+00
  0.00000000E+00  0.00000000E+00  0.00000000E+00
  0.00000000E+00  0.00000000E+00  0.00000000E+00
  0.00000000E+00  0.00000000E+00  0.00000000E+00
  0.00000000E+00  0.00000000E+00  0.00000000E+00
  0.00000000E+00  0.00000000E+00  0.00000000E+00
  0.00000000E+00  0.00000000E+00  0.00000000E+00
  0.00000000E+00  0.00000000E+00  0.00000000E+00
  0.00000000E+00  0.00000000E+00  0.00000000E+00
  0.00000000E+00  0.00000000E+00  0.00000000E+00
  0.00000000E+00  0.00000000E+00  0.00000000E+00
  0.00000000E+00  0.00000000E+00  0.00000000E+00
