 C 
 1.0000000000000000
    28.0500000000000007    0.0000000000000000    0.0000000000000000
     0.0000000000000000    8.0999999999999996    0.0000000000000000
     0.0000000000000000    0.0000000000000000   33.5000000000000000
 C  
  92
Cartesian
  0.3212200000000000  0.8181900000000000 14.8094999999999999
  0.2818820000000000  2.2390200000000000 14.8971000000000000
  1.5525700000000000  0.1648360000000000 14.9982000000000006
  1.4797300000000000  2.8586600000000000 15.3529000000000000
  2.7182599999999999  0.8498150000000000 15.5168999999999997
  2.7046600000000001  2.1877499999999999 15.7283000000000008
  3.9498600000000001  0.1159750000000000 15.9194999999999993
  3.9064500000000000  2.7855900000000000 16.0808999999999997
  5.0967900000000004  0.7812540000000000 16.3960000000000008
  5.0711800000000000  2.1409699999999998 16.5427000000000000
  6.2211699999999999  0.1512080000000000 16.9378999999999991
  6.1794900000000004  2.7844300000000000 17.1474000000000011
  7.3578400000000004  0.7968980000000000 17.4851999999999990
  7.4066700000000001  2.1535799999999998 17.4913999999999987
  8.5544700000000002  0.1376180000000000 17.8272000000000013
  8.5784099999999999  2.8533599999999999 17.8761000000000010
  9.8262199999999993  0.8227420000000000 18.0427000000000000
  9.8069299999999995  2.1513300000000002 18.1466999999999992
 11.0482999999999993  0.1638140000000000 18.0986000000000011
 11.0327999999999999  2.8125000000000000 18.2789000000000001
 12.2856000000000005  0.7937370000000000 18.2687999999999988
 12.2888000000000002  2.1505800000000002 18.2225000000000001
 13.5444999999999993  0.1650670000000000 18.2322999999999986
 13.5472000000000001  2.8559399999999999 18.3855000000000004
 14.7178000000000004  0.7967540000000000 18.1916000000000011
 14.7615999999999996  2.2124700000000002 18.3366000000000007
 15.9641999999999999  0.1846460000000000 17.8628000000000000
 16.0473999999999997  2.8552200000000001 18.1969999999999992
 17.2393999999999998  0.9011260000000000 17.6343999999999994
 17.3087000000000018  2.2593000000000001 17.8645999999999994
 18.3585999999999991  0.2378220000000000 17.1361999999999988
 18.5837000000000003  2.8873400000000000 17.6683999999999983
 19.5698000000000008  0.9072030000000000 16.8125999999999998
 19.7192000000000007  2.2315700000000001 17.0670999999999999
 20.7159000000000013  0.2036350000000000 16.2963999999999984
 20.9018000000000015  2.8737599999999999 16.6997000000000000
 21.9243999999999986  0.8921940000000000 15.9891000000000005
 22.0508999999999986  2.2380000000000000 16.1293000000000006
 23.1097999999999999  0.2922610000000000 15.5137000000000000
 23.2435000000000009  2.9473699999999998 15.7403999999999993
 24.3670000000000009  0.9255120000000000 15.2064000000000004
 24.4263000000000012  2.2912499999999998 15.3054000000000006
 25.6210999999999984  0.2356630000000000 14.8641000000000005
 25.6798000000000002  2.9401700000000002 15.0679999999999996
 26.9085000000000001  0.8908030000000000 14.7489000000000008
 26.8660999999999994  2.2226100000000000 14.8484999999999996
  0.2394310000000000  4.9115900000000003 15.1742000000000008
  0.2565950000000000  6.3166200000000003 15.1285000000000007
  1.4499299999999999  4.2113800000000001 15.5078999999999994
  1.5061000000000000  6.9112299999999998 15.2081000000000000
  2.6325400000000001  4.8602900000000000 15.8109000000000002
  2.6657600000000001  6.2178100000000001 15.6591000000000005
  3.8682900000000000  4.2003000000000004 16.1622999999999983
  3.9642300000000001  6.8567799999999997 15.8184000000000005
  5.0759900000000000  4.8397500000000004 16.5482000000000014
  5.0638800000000002  6.2241499999999998 16.4628000000000014
  6.2016700000000000  4.1659499999999996 17.1387999999999998
  6.2259500000000001  6.8639000000000001 16.8712000000000018
  7.3761500000000000  4.8737700000000004 17.4846000000000004
  7.3925299999999998  6.2104699999999999 17.2844000000000015
  8.6005099999999999  4.2458000000000000 17.8497999999999983
  8.5678900000000002  6.8888600000000002 17.7394999999999996
  9.8172999999999995  4.8890399999999996 18.0407000000000011
  9.8029700000000002  6.2530299999999999 18.0127999999999986
 11.0375999999999994  4.1761200000000001 18.2311000000000014
 11.0477000000000007  6.9170900000000000 18.2603000000000009
 12.3043999999999993  4.8823699999999999 18.2913999999999994
 12.3376999999999999  6.2701599999999997 18.3572999999999986
 13.5692000000000004  4.2264900000000001 18.3563000000000009
 13.6227000000000000  6.8827699999999998 18.2942000000000000
 14.8393999999999995  4.8578500000000000 18.3062000000000005
 14.8312000000000008  6.2102199999999996 18.1194999999999986
 16.1004000000000005  4.2009900000000000 18.1461000000000006
 16.0045999999999999  6.9044699999999999 17.8457000000000008
 17.2670999999999992  4.9141700000000004 17.8024999999999984
 17.2454000000000001  6.2679099999999996 17.6371000000000002
 18.5524999999999984  4.2827900000000003 17.6088999999999984
 18.3618999999999986  6.9651899999999998 17.1260000000000012
 19.6956999999999987  4.9715999999999996 17.0825999999999993
 19.5079999999999991  6.2618000000000000 16.6938999999999993
 20.8719000000000001  4.2735399999999997 16.6083999999999996
 20.6910999999999987  6.9491699999999996 16.2224000000000004
 21.9071999999999996  4.8804299999999996 15.9187999999999992
 21.9080000000000013  6.2738600000000000 15.8765000000000001
 23.1853000000000016  4.3103499999999997 15.6597000000000008
 23.1162999999999990  7.0274500000000000 15.4463000000000008
 24.3669000000000011  4.9628899999999998 15.1852000000000000
 24.3264999999999993  6.3403700000000001 15.1146999999999991
 25.6160999999999994  4.2828099999999996 15.0580999999999996
 25.6019000000000005  7.0002500000000003 14.9254999999999995
 26.8453000000000017  4.9155400000000000 14.8779000000000003
 26.8307000000000002  6.3357400000000004 14.8673000000000002
