 C 
 1.0000000000000000
    28.0500000000000007    0.0000000000000000    0.0000000000000000
     0.0000000000000000    8.0999999999999996    0.0000000000000000
     0.0000000000000000    0.0000000000000000   33.5000000000000000
 C  
  92
Cartesian
  6.3035399999999999  0.6449850000000000 -110.7189999999999941
  6.3362900000000000  2.0186700000000002 -110.6290000000000049
  7.4138299999999999  0.0057318400000000 -111.2819999999999965
  7.4499399999999998  2.6763499999999998 -111.1380000000000052
  8.6829199999999993  0.6458270000000000 -111.4989999999999952
  8.6855499999999992  2.0583000000000000 -111.4929999999999950
  9.8248999999999995  8.0577600000000000 -111.9069999999999965
  9.8193400000000004  2.7100700000000000 -111.9599999999999937
 11.0693000000000001  0.6049600000000001 -112.1029999999999944
 10.9791000000000007  1.9633600000000000 -112.2780000000000058
 12.2368000000000006  8.0564999999999998 -112.5049999999999955
 12.1351999999999993  2.6180200000000000 -112.7770000000000010
 13.4834999999999994  0.6289090000000001 -112.7390000000000043
 13.3887999999999998  1.9619100000000000 -112.9449999999999932
 14.7394999999999996  0.0359183000000000 -113.0199999999999960
 14.5931999999999995  2.6749200000000002 -113.1299999999999955
 15.9245999999999999  0.7025700000000000 -113.1659999999999968
 15.8693000000000008  2.0743999999999998 -113.1719999999999970
 17.1372999999999998  0.0396722000000000 -113.3520000000000039
 17.0884000000000000  2.7349000000000001 -113.1310000000000002
 18.3750999999999998  0.6612450000000000 -113.0360000000000014
 18.3517000000000010  2.0553699999999999 -113.0120000000000005
 19.6128000000000000  8.0787499999999994 -112.8790000000000049
 19.5767999999999986  2.7396799999999999 -112.7519999999999953
 20.7572000000000010  0.6776920000000000 -112.4369999999999976
 20.7088999999999999  2.0539800000000001 -112.2530000000000001
 21.9983000000000004  0.0644979000000000 -112.1509999999999962
 21.8906999999999989  2.7835800000000002 -111.9120000000000061
 23.1221999999999994  0.7572090000000000 -111.7169999999999987
 23.0854999999999997  2.1268899999999999 -111.6080000000000041
 24.3287000000000013  0.0874830000000000 -111.5010000000000048
 24.3060000000000009  2.7818700000000001 -111.3269999999999982
 25.5201999999999991  0.7699230000000000 -111.0580000000000069
 25.4836999999999989  2.1234400000000000 -110.9189999999999969
 26.7569000000000017  0.1046930000000000 -110.9210000000000065
 26.6572999999999993  2.7891499999999998 -110.5600000000000023
 27.9176000000000002  0.7244570000000000 -110.3700000000000045
 27.8472000000000008  2.1024600000000002 -110.2210000000000036
  1.1801100000000000  0.0776931000000000 -110.3569999999999993
  1.1402500000000000  2.7639300000000002 -110.1329999999999956
  2.4219599999999999  0.7015520000000000 -110.2139999999999986
  2.4126300000000001  2.0837100000000000 -110.1460000000000008
  3.6574000000000000  0.0116063000000000 -110.5070000000000050
  3.6655099999999998  2.7463700000000002 -110.1620000000000061
  4.8627799999999999  0.6942910000000000 -110.5310000000000059
  4.8859399999999997  2.0631800000000000 -110.3110000000000070
  6.2315199999999997  4.6813599999999997 -111.0559999999999974
  6.2213700000000003  6.1047399999999996 -111.1760000000000019
  7.3316200000000000  4.0178000000000003 -111.4689999999999941
  7.3782399999999999  6.7662199999999997 -111.5649999999999977
  8.5114300000000007  4.7268600000000003 -111.9770000000000039
  8.5495400000000004  6.1086299999999998 -111.9929999999999950
  9.6830400000000001  4.0230199999999998 -112.2810000000000059
  9.8194300000000005  6.6923500000000002 -112.1880000000000024
 10.8726000000000003  4.6740000000000004 -112.7999999999999972
 10.9481999999999999  6.0165400000000000 -112.6119999999999948
 12.1092999999999993  3.9757799999999999 -113.0469999999999970
 12.1182999999999996  6.7198000000000002 -112.8089999999999975
 13.3323000000000000  4.7022000000000004 -113.3679999999999950
 13.3440999999999992  6.1231299999999997 -113.3169999999999931
 14.5556999999999999  4.0373999999999999 -113.4159999999999968
 14.6228999999999996  6.7144500000000003 -113.2939999999999969
 15.8340999999999994  4.7204499999999996 -113.5330000000000013
 15.8717000000000006  6.0772700000000004 -113.4789999999999992
 17.1370000000000005  4.0514999999999999 -113.4599999999999937
 17.1102999999999987  6.7647000000000004 -113.3160000000000025
 18.4145000000000003  4.7228599999999998 -113.3329999999999984
 18.3658999999999999  6.1013700000000002 -113.3160000000000025
 19.5793999999999997  4.0789000000000000 -113.0250000000000057
 19.6334000000000017  6.7472700000000003 -113.0649999999999977
 20.8281999999999989  4.7311399999999999 -112.7500000000000000
 20.8394000000000013  6.0880900000000002 -112.7920000000000016
 21.9619999999999997  4.1181299999999998 -112.1869999999999976
 22.0045999999999999  6.8054300000000003 -112.4350000000000023
 23.2447000000000017  4.7584000000000000 -112.1700000000000017
 23.2165999999999997  6.1529900000000000 -112.1940000000000026
 24.3737999999999992  4.1219999999999999 -111.6239999999999952
 24.3992000000000004  6.8472499999999998 -111.7870000000000061
 25.6163999999999987  4.8112399999999997 -111.3810000000000002
 25.6367000000000012  6.1650999999999998 -111.5559999999999974
 26.7559000000000005  4.1940400000000002 -110.7660000000000053
 26.8457000000000008  6.8483900000000002 -111.2469999999999999
 28.0071000000000012  4.7994300000000001 -110.6299999999999955
 28.0370999999999988  6.1451599999999997 -110.9500000000000028
  1.1754300000000000  4.1098100000000004 -110.2950000000000017
  1.1849600000000000  6.8061900000000000 -110.6410000000000053
  2.3881899999999998  4.7365399999999998 -110.4230000000000018
  2.4086799999999999  6.1233199999999997 -110.6440000000000055
  3.6689099999999999  4.0799799999999999 -110.3610000000000042
  3.6909399999999999  6.8077199999999998 -110.6740000000000066
  4.8316900000000000  4.6733700000000002 -110.7810000000000059
  4.8684599999999998  6.0758400000000004 -110.7969999999999970
