 C 
 1.0000000000000000
    28.0500000000000007    0.0000000000000000    0.0000000000000000
     0.0000000000000000    8.0999999999999996    0.0000000000000000
     0.0000000000000000    0.0000000000000000   33.5000000000000000
 C  
  92
Cartesian
  0.1814980000000000  0.9082640000000000 17.6006000000000000
  0.1175410000000000  2.2318799999999999 17.8536000000000001
  1.3542400000000001  0.1463470000000000 17.7436000000000007
  1.2891900000000001  2.8499800000000000 18.1058999999999983
  2.5054599999999998  0.8023820000000000 18.1682999999999986
  2.5135399999999999  2.1479200000000001 18.3176999999999985
  3.7413699999999999  0.1432700000000000 18.3206999999999987
  3.7591700000000001  2.8494999999999999 18.4617000000000004
  4.9444600000000003  0.8103260000000000 18.3170999999999999
  5.0164799999999996  2.1648600000000000 18.4862000000000002
  6.2253299999999996  0.1678420000000000 18.1259000000000015
  6.3434400000000002  2.8169700000000000 18.5189999999999984
  7.5134900000000000  0.7951850000000000 18.0863000000000014
  7.6036400000000004  2.1439300000000001 18.3129999999999988
  8.7434899999999995  0.1661150000000000 17.6229000000000013
  8.8503200000000000  2.7832900000000000 18.0675999999999988
 10.0413999999999994  0.7662850000000000 17.5268000000000015
 10.0518999999999998  2.1750900000000000 17.6565000000000012
 11.1442999999999994  0.1558210000000000 16.9398000000000017
 11.2377000000000002  2.8594900000000001 17.2280000000000015
 12.3574999999999999  0.8373780000000000 16.6505000000000010
 12.4113000000000007  2.2126299999999999 16.7550999999999988
 13.4821000000000009  0.1970740000000000 16.1436999999999991
 13.5235000000000003  2.8707699999999998 16.2496000000000009
 14.7353000000000005  0.8830430000000000 15.9366000000000003
 14.7134000000000000  2.2314500000000002 15.8865999999999996
 15.8979999999999997  0.1809570000000000 15.5393000000000008
 15.8940000000000001  2.8825799999999999 15.5154999999999994
 17.1256999999999984  0.8566640000000000 15.3436000000000003
 17.1357999999999997  2.2128199999999998 15.4037000000000006
 18.3546000000000014  0.1784690000000000 15.1387999999999998
 18.4000999999999983  2.8983599999999998 15.3249999999999993
 19.6236999999999995  0.8011210000000000 15.2981999999999996
 19.6352000000000011  2.2182200000000001 15.4697999999999993
 20.8765999999999998  0.1906990000000000 15.2708999999999993
 20.8465999999999987  2.9512600000000000 15.6262000000000008
 22.0410000000000004  0.8883259999999999 15.7378999999999998
 22.0314000000000014  2.2287300000000001 15.9801000000000002
 23.3578000000000010  0.2330850000000000 15.9361999999999995
 23.1844999999999999  2.9248900000000000 16.3341999999999992
 24.4070000000000000  0.8805490000000000 16.4725999999999999
 24.3353999999999999  2.2201900000000001 16.7340000000000018
 25.6777000000000015  0.2857340000000000 16.6673000000000009
 25.5711000000000013  2.9255300000000002 17.0353999999999992
 26.7618000000000009  0.9265880000000000 17.2383999999999986
 26.7302000000000000  2.3316900000000000 17.3590000000000018
  0.1195570000000000  4.8586600000000004 17.3295999999999992
  0.2320880000000000  6.2641999999999998 17.2205000000000013
  1.2929299999999999  4.1958500000000001 17.9081000000000010
  1.3881600000000001  6.8865999999999996 17.6798000000000002
  2.5125299999999999  4.8525099999999997 18.2101000000000006
  2.5517500000000002  6.2077299999999997 18.1137000000000015
  3.7795000000000001  4.1850600000000000 18.2883999999999993
  3.7973599999999998  6.8687600000000000 18.1561999999999983
  5.0674099999999997  4.8216700000000001 18.2967000000000013
  5.0287199999999999  6.1854100000000001 18.0921999999999983
  6.3246500000000001  4.1999000000000004 18.4287999999999990
  6.2275499999999999  6.9008099999999999 17.9693000000000005
  7.5320299999999998  4.8447699999999996 18.1039999999999992
  7.5194099999999997  6.2060599999999999 17.8585999999999991
  8.7453299999999992  4.1724899999999998 17.9134999999999991
  8.7196499999999997  6.9242900000000001 17.5344000000000015
  9.9291599999999995  4.8374100000000002 17.3948000000000000
  9.8924000000000003  6.1982699999999999 17.1188000000000002
 11.1615000000000002  4.2228300000000001 17.1365000000000016
 11.0611999999999995  6.8846699999999998 16.7745999999999995
 12.2723999999999993  4.8998799999999996 16.5045000000000002
 12.2349999999999994  6.2447200000000000 16.3948000000000000
 13.4770000000000003  4.2794499999999998 16.0372999999999983
 13.4182000000000006  6.9495300000000002 15.9642999999999997
 14.6798999999999999  4.9015199999999997 15.6374999999999993
 14.6420999999999992  6.2761100000000001 15.6112000000000002
 15.8871000000000002  4.2419300000000000 15.3718000000000004
 15.8277999999999999  6.9177400000000002 15.3437999999999999
 17.1230000000000011  4.8913099999999998 14.9674999999999994
 17.0193000000000012  6.2648700000000002 14.9506999999999994
 18.3740999999999985  4.2471300000000003 14.9831000000000003
 18.3225000000000016  6.9099199999999996 14.9845000000000006
 19.6545999999999985  4.8823600000000003 14.9551999999999996
 19.6054999999999993  6.2439200000000001 14.9817999999999998
 20.8777000000000008  4.2824900000000001 15.3356999999999992
 20.8682000000000016  6.9228899999999998 15.1995000000000005
 22.1055999999999990  4.9601300000000004 15.5680999999999994
 22.1543999999999990  6.3126699999999998 15.4065999999999992
 23.2929999999999993  4.2670800000000000 16.0198999999999998
 23.3821000000000012  6.9671099999999999 15.7131000000000007
 24.5004999999999988  4.9211299999999998 16.1759999999999984
 24.6020000000000003  6.2925000000000004 16.0503999999999998
 25.6061000000000014  4.2371699999999999 16.7407000000000004
 25.7799000000000014  6.9981400000000002 16.3956000000000017
 26.7740000000000009  4.9227699999999999 16.9003000000000014
 26.8596000000000004  6.3140799999999997 16.7669999999999995
