 C                                      
    1.000000000000000     
    28.0500000000000007    0.0000000000000000    0.0000000000000000
     0.0000000000000000    8.0999999999999996    0.0000000000000000
     0.0000000000000000    0.0000000000000000   33.5000000000000000
   C 
    92
Direct
     0.4860748663101617    0.0976734567901261    0.8835552238805988
     0.4863885918003561    0.2667283950617261    0.8802477611940276
     0.5287593582887666    0.0184387654321014    0.8845014925373107
     0.5294795008912629    0.3508135802469141    0.8787283582089529
     0.5727201426024990    0.1035377777777811    0.8810925373134353
     0.5745490196078435    0.2741703703703706    0.8775940298507479
     0.6171586452762909    0.0212138271604942    0.8874507462686552
     0.6189696969696996    0.3514617283950585    0.8817492537313427
     0.6632798573975052    0.1020574074074077    0.8887134328358215
     0.6628413547237102    0.2707345679012363    0.8884597014925362
     0.7074973262032103    0.0114959506172809    0.8960776119402993
     0.7069732620320863    0.3490888888888861    0.8970238805970183
     0.7504955436720167    0.0930301234567921    0.9051373134328387
     0.7519500891265594    0.2608358024691384    0.9027850746268626
     0.7898930481283415    0.0215860493827194    0.9215432835820891
     0.7927272727272694    0.3507259259259285    0.9145343283582079
     0.8363030303030285    0.1001354320987673    0.9257880597014960
     0.8349518716577506    0.2673802469135822    0.9242746268656745
     0.8766809269162223    0.0153274074074048    0.9389582089552206
     0.8780926916221006    0.3483358024691370    0.9348059701492559
     0.9206310160427833    0.0994319753086401    0.9450059701492535
     0.9197361853832433    0.2664308641975310    0.9479820895522408
     0.9646345811051660    0.0135576543209908    0.9509850746268640
     0.9626452762923350    0.3444148148148116    0.9617402985074648
     0.0075891622103370    0.0975618518518502    0.9596567164179106
     0.0043433155080237    0.2666901234567902    0.9689313432835789
     0.0498627450980393    0.0177461728395087    0.9697522388059667
     0.0470235294117671    0.3476308641975336    0.9784656716417928
     0.0949586452762929    0.1009304938271640    0.9745074626865673
     0.0952106951871627    0.2699938271604907    0.9765910447761215
     0.1397472370766479    0.0208113580246945    0.9790716417910446
     0.1366327985739773    0.3532506172839476    0.9739462686567180
     0.1825461675579305    0.0959158024691362    0.9688268656716446
     0.1802345811051680    0.2655086419753090    0.9659164179104494
     0.2276042780748639    0.0201216049382751    0.9641552238805957
     0.2236203208556162    0.3510753086419740    0.9592805970149243
     0.2697511586452777    0.0965972839506151    0.9498119402985097
     0.2671614973262066    0.2623777777777789    0.9470925373134307
     0.3125351158645273    0.0171019753086412    0.9377402985074639
     0.3075557932263848    0.3546382716049408    0.9316716417910413
     0.3504260249554392    0.0994248148148174    0.9205492537313447
     0.3496206773618553    0.2731432098765438    0.9189761194029842
     0.3936470588235323    0.0232475308641966    0.9073850746268661
     0.3919180035650598    0.3473580246913599    0.9070447761194060
     0.4324064171122970    0.1055196296296330    0.8922238805970153
     0.4341889483065984    0.2778234567901237    0.8897313432835787
     0.4851586452762930    0.5955000000000013    0.8961134328358185
     0.4852762923351150    0.7691481481481475    0.8960059701492540
     0.5298894830659506    0.5171370370370383    0.8860686567164180
     0.5296827094474139    0.8463975308641949    0.8925552238805992
     0.5726844919786132    0.5974888888888898    0.8941850746268685
     0.5731622103386798    0.7689456790123472    0.8969641791044793
     0.6167629233511605    0.5144666666666637    0.8920477611940285
     0.6179536541889519    0.8521765432098789    0.8949552238805936
     0.6602673796791478    0.5964790123456822    0.9008179104477634
     0.6595508021390373    0.7632691358024672    0.9029522388059732
     0.7047522281639900    0.5165320987654312    0.9043582089552231
     0.7059429590017814    0.8466753086419772    0.9048447761194041
     0.7480606060606050    0.5964148148148141    0.9146925373134351
     0.7471942959001794    0.7666728395061710    0.9183820895522388
     0.7918217468805722    0.5170999999999992    0.9191402985074646
     0.7888449197860936    0.8525864197530879    0.9247373134328356
     0.8332263814616780    0.5996666666666641    0.9331641791044802
     0.8317005347593565    0.7647641975308659    0.9350895522388072
     0.8762495543671989    0.5153382716049393    0.9403701492537309
     0.8743030303030324    0.8441555555555524    0.9442059701492553
     0.9191479500891262    0.5953135802469163    0.9521164179104460
     0.9196791443850287    0.7620419753086409    0.9518925373134337
     0.9620819964349394    0.5133888888888904    0.9644179104477644
     0.9650516934046323    0.8429580246913559    0.9532238805970152
     0.0052364705882368    0.5965716049382692    0.9700835820895506
     0.0072365775401053    0.7628703703703721    0.9628179104477610
     0.0491162210338700    0.5180641975308617    0.9769104477611918
     0.0511262032085540    0.8471358024691327    0.9688597014925406
     0.0947358288770062    0.6007888888888857    0.9795283582089525
     0.0941311942958976    0.7665444444444418    0.9780238805970143
     0.1386491978609641    0.5198049382716050    0.9767582089552249
     0.1401982174688072    0.8543851851851869    0.9822149253731354
     0.1818951871657788    0.6028481481481478    0.9715701492537292
     0.1842798573975060    0.7723333333333358    0.9754746268656689
     0.2260891265597138    0.5168925925925905    0.9651582089552235
     0.2298007130124802    0.8521493827160498    0.9677223880596983
     0.2692046345811079    0.5978074074074087    0.9553014925373162
     0.2714042780748684    0.7639493827160493    0.9552208955223875
     0.3100331550802125    0.5187790123456821    0.9384925373134294
     0.3137290552584702    0.8479641975308638    0.9427701492537324
     0.3534185383244193    0.5998444444444431    0.9274328358208948
     0.3546434937611380    0.7645913580246884    0.9287552238806001
     0.3923814616755763    0.5233604938271625    0.9093880597014916
     0.3944955436720150    0.8561543209876561    0.9143731343283577
     0.4353796791443827    0.5986753086419725    0.9069462686567178
     0.4367771836007108    0.7710901234567871    0.9069074626865685
 
  0.00000000E+00  0.00000000E+00  0.00000000E+00
  0.00000000E+00  0.00000000E+00  0.00000000E+00
  0.00000000E+00  0.00000000E+00  0.00000000E+00
  0.00000000E+00  0.00000000E+00  0.00000000E+00
  0.00000000E+00  0.00000000E+00  0.00000000E+00
  0.00000000E+00  0.00000000E+00  0.00000000E+00
  0.00000000E+00  0.00000000E+00  0.00000000E+00
  0.00000000E+00  0.00000000E+00  0.00000000E+00
  0.00000000E+00  0.00000000E+00  0.00000000E+00
  0.00000000E+00  0.00000000E+00  0.00000000E+00
  0.00000000E+00  0.00000000E+00  0.00000000E+00
  0.00000000E+00  0.00000000E+00  0.00000000E+00
  0.00000000E+00  0.00000000E+00  0.00000000E+00
  0.00000000E+00  0.00000000E+00  0.00000000E+00
  0.00000000E+00  0.00000000E+00  0.00000000E+00
  0.00000000E+00  0.00000000E+00  0.00000000E+00
  0.00000000E+00  0.00000000E+00  0.00000000E+00
  0.00000000E+00  0.00000000E+00  0.00000000E+00
  0.00000000E+00  0.00000000E+00  0.00000000E+00
  0.00000000E+00  0.00000000E+00  0.00000000E+00
  0.00000000E+00  0.00000000E+00  0.00000000E+00
  0.00000000E+00  0.00000000E+00  0.00000000E+00
  0.00000000E+00  0.00000000E+00  0.00000000E+00
  0.00000000E+00  0.00000000E+00  0.00000000E+00
  0.00000000E+00  0.00000000E+00  0.00000000E+00
  0.00000000E+00  0.00000000E+00  0.00000000E+00
  0.00000000E+00  0.00000000E+00  0.00000000E+00
  0.00000000E+00  0.00000000E+00  0.00000000E+00
  0.00000000E+00  0.00000000E+00  0.00000000E+00
  0.00000000E+00  0.00000000E+00  0.00000000E+00
  0.00000000E+00  0.00000000E+00  0.00000000E+00
  0.00000000E+00  0.00000000E+00  0.00000000E+00
  0.00000000E+00  0.00000000E+00  0.00000000E+00
  0.00000000E+00  0.00000000E+00  0.00000000E+00
  0.00000000E+00  0.00000000E+00  0.00000000E+00
  0.00000000E+00  0.00000000E+00  0.00000000E+00
  0.00000000E+00  0.00000000E+00  0.00000000E+00
  0.00000000E+00  0.00000000E+00  0.00000000E+00
  0.00000000E+00  0.00000000E+00  0.00000000E+00
  0.00000000E+00  0.00000000E+00  0.00000000E+00
  0.00000000E+00  0.00000000E+00  0.00000000E+00
  0.00000000E+00  0.00000000E+00  0.00000000E+00
  0.00000000E+00  0.00000000E+00  0.00000000E+00
  0.00000000E+00  0.00000000E+00  0.00000000E+00
  0.00000000E+00  0.00000000E+00  0.00000000E+00
  0.00000000E+00  0.00000000E+00  0.00000000E+00
  0.00000000E+00  0.00000000E+00  0.00000000E+00
  0.00000000E+00  0.00000000E+00  0.00000000E+00
  0.00000000E+00  0.00000000E+00  0.00000000E+00
  0.00000000E+00  0.00000000E+00  0.00000000E+00
  0.00000000E+00  0.00000000E+00  0.00000000E+00
  0.00000000E+00  0.00000000E+00  0.00000000E+00
  0.00000000E+00  0.00000000E+00  0.00000000E+00
  0.00000000E+00  0.00000000E+00  0.00000000E+00
  0.00000000E+00  0.00000000E+00  0.00000000E+00
  0.00000000E+00  0.00000000E+00  0.00000000E+00
  0.00000000E+00  0.00000000E+00  0.00000000E+00
  0.00000000E+00  0.00000000E+00  0.00000000E+00
  0.00000000E+00  0.00000000E+00  0.00000000E+00
  0.00000000E+00  0.00000000E+00  0.00000000E+00
  0.00000000E+00  0.00000000E+00  0.00000000E+00
  0.00000000E+00  0.00000000E+00  0.00000000E+00
  0.00000000E+00  0.00000000E+00  0.00000000E+00
  0.00000000E+00  0.00000000E+00  0.00000000E+00
  0.00000000E+00  0.00000000E+00  0.00000000E+00
  0.00000000E+00  0.00000000E+00  0.00000000E+00
  0.00000000E+00  0.00000000E+00  0.00000000E+00
  0.00000000E+00  0.00000000E+00  0.00000000E+00
  0.00000000E+00  0.00000000E+00  0.00000000E+00
  0.00000000E+00  0.00000000E+00  0.00000000E+00
  0.00000000E+00  0.00000000E+00  0.00000000E+00
  0.00000000E+00  0.00000000E+00  0.00000000E+00
  0.00000000E+00  0.00000000E+00  0.00000000E+00
  0.00000000E+00  0.00000000E+00  0.00000000E+00
  0.00000000E+00  0.00000000E+00  0.00000000E+00
  0.00000000E+00  0.00000000E+00  0.00000000E+00
  0.00000000E+00  0.00000000E+00  0.00000000E+00
  0.00000000E+00  0.00000000E+00  0.00000000E+00
  0.00000000E+00  0.00000000E+00  0.00000000E+00
  0.00000000E+00  0.00000000E+00  0.00000000E+00
  0.00000000E+00  0.00000000E+00  0.00000000E+00
  0.00000000E+00  0.00000000E+00  0.00000000E+00
  0.00000000E+00  0.00000000E+00  0.00000000E+00
  0.00000000E+00  0.00000000E+00  0.00000000E+00
  0.00000000E+00  0.00000000E+00  0.00000000E+00
  0.00000000E+00  0.00000000E+00  0.00000000E+00
  0.00000000E+00  0.00000000E+00  0.00000000E+00
  0.00000000E+00  0.00000000E+00  0.00000000E+00
  0.00000000E+00  0.00000000E+00  0.00000000E+00
  0.00000000E+00  0.00000000E+00  0.00000000E+00
  0.00000000E+00  0.00000000E+00  0.00000000E+00
  0.00000000E+00  0.00000000E+00  0.00000000E+00
