 C 
 1.0000000000000000
    28.0500000000000007    0.0000000000000000    0.0000000000000000
     0.0000000000000000    8.0999999999999996    0.0000000000000000
     0.0000000000000000    0.0000000000000000   33.5000000000000000
 C  
  92
Cartesian
 13.6343999999999994  0.7911550000000001 -70.9008999999999929
 13.6432000000000002  2.1604999999999999 -71.0117000000000047
 14.8316999999999997  0.1493540000000000 -70.8692000000000064
 14.8519000000000005  2.8415900000000001 -71.0626000000000033
 16.0648000000000017  0.8386560000000000 -70.9834000000000032
 16.1160999999999994  2.2207800000000000 -71.1006000000000000
 17.3112999999999992  0.1718320000000000 -70.7703999999999951
 17.3621000000000016  2.8468399999999998 -70.9613999999999976
 18.6050000000000004  0.8266650000000000 -70.7280999999999977
 18.5927000000000007  2.1929500000000002 -70.7365999999999957
 19.8453000000000017  0.0931172000000000 -70.4813999999999936
 19.8306000000000004  2.8276200000000000 -70.4497000000000071
 21.0514000000000010  0.7535440000000000 -70.1778999999999940
 21.0921999999999983  2.1127699999999998 -70.2566999999999950
 22.1565000000000012  0.1748470000000000 -69.6282999999999959
 22.2360000000000007  2.8408799999999998 -69.8631000000000029
 23.4583000000000013  0.8110970000000000 -69.4860999999999933
 23.4204000000000008  2.1657799999999998 -69.5367999999999995
 24.5909000000000013  0.1241520000000000 -69.0448999999999984
 24.6305000000000014  2.8215200000000000 -69.1839999999999975
 25.8236999999999988  0.8053990000000000 -68.8422999999999945
 25.7986000000000004  2.1580900000000001 -68.7425999999999959
 27.0579999999999998  0.1098170000000000 -68.6419999999999959
 27.0021999999999984  2.7897599999999998 -68.2817000000000007
  0.2128760000000000  0.7902510000000000 -68.3515000000000015
  0.1218300000000000  2.1601900000000001 -68.0408000000000044
  1.3986499999999999  0.1437440000000000 -68.0133000000000010
  1.3190100000000000  2.8158099999999999 -67.7214000000000027
  2.6635900000000001  0.8175370000000000 -67.8539999999999992
  2.6706599999999998  2.1869499999999999 -67.7841999999999985
  3.9199099999999998  0.1685720000000000 -67.7010999999999967
  3.8325499999999999  2.8613300000000002 -67.8727999999999980
  5.1204200000000002  0.7769180000000000 -68.0443000000000069
  5.0555800000000000  2.1506200000000000 -68.1418000000000035
  6.3842999999999996  0.1629850000000000 -68.2008000000000010
  6.2725499999999998  2.8437100000000002 -68.3640999999999934
  7.5665199999999997  0.7824380000000000 -68.6812999999999931
  7.4938799999999999  2.1252599999999999 -68.7724000000000046
  8.7666100000000000  0.1385260000000000 -69.0857000000000028
  8.6269399999999994  2.8725700000000001 -69.2890000000000015
  9.8294499999999996  0.8053410000000000 -69.6616000000000071
  9.8068600000000004  2.2124600000000001 -69.7142999999999944
 11.0418000000000003  0.1883050000000000 -70.1025999999999954
 10.9932999999999996  2.8136000000000001 -70.1140000000000043
 12.1289999999999996  0.8547090000000001 -70.6105000000000018
 12.1790000000000003  2.2503700000000002 -70.6940000000000026
 13.6087000000000007  4.8235500000000000 -70.4801999999999964
 13.6120000000000001  6.2301000000000002 -70.4838000000000022
 14.8634000000000004  4.1888100000000001 -70.8166999999999973
 14.8575999999999997  6.8558199999999996 -70.5994000000000028
 16.0638000000000005  4.8396600000000003 -70.5447999999999951
 16.0772000000000013  6.2284600000000001 -70.4517000000000024
 17.3002000000000002  4.1671800000000001 -70.6163999999999987
 17.3336000000000006  6.9026300000000003 -70.5190000000000055
 18.5204999999999984  4.8314800000000000 -70.3225999999999942
 18.5003999999999991  6.1824800000000000 -70.2510999999999939
 19.7683000000000000  4.1839100000000000 -70.2039999999999935
 19.8017000000000003  6.8580699999999997 -70.1877000000000066
 20.9831000000000003  4.8309600000000001 -69.8577999999999975
 20.9588000000000001  6.2100499999999998 -69.7342000000000013
 22.2105999999999995  4.1885100000000000 -69.7087999999999965
 22.1270999999999987  6.9059499999999998 -69.5212999999999965
 23.3719999999999999  4.8573000000000004 -69.2390000000000043
 23.3292000000000002  6.1945899999999998 -69.1744999999999948
 24.5788000000000011  4.1742400000000002 -68.9976000000000056
 24.5242000000000004  6.8376599999999996 -68.8691000000000031
 25.7820999999999998  4.8220400000000003 -68.6041000000000025
 25.7970000000000006  6.1725399999999997 -68.6115999999999957
 26.9863999999999997  4.1584500000000002 -68.1919999999999931
 27.0697000000000010  6.8279600000000000 -68.5669999999999931
  0.1468830000000000  4.8322300000000000 -68.0022000000000020
  0.2029860000000000  6.1792499999999997 -68.2455999999999960
  1.3777100000000000  4.1963200000000001 -67.7734999999999985
  1.4340900000000001  6.8617999999999997 -68.0431999999999988
  2.6573400000000000  4.8663900000000000 -67.6858000000000004
  2.6403799999999999  6.2090100000000001 -67.7361999999999966
  3.8891100000000001  4.2104200000000001 -67.7785999999999973
  3.9325600000000001  6.9205199999999998 -67.5957999999999970
  5.1021599999999996  4.8830700000000000 -67.9523999999999972
  5.1690500000000004  6.2558999999999996 -67.8216000000000037
  6.3418000000000001  4.1868299999999996 -68.1671999999999940
  6.4459099999999996  6.9024099999999997 -68.0812999999999988
  7.5511900000000001  4.8422400000000003 -68.4973999999999990
  7.6128900000000002  6.1879900000000001 -68.5001000000000033
  8.6964299999999994  4.2021100000000002 -69.0605000000000047
  8.8001000000000005  6.8685099999999997 -68.9171999999999940
  9.9133899999999997  4.8587400000000001 -69.4309999999999974
  9.9477499999999992  6.1931900000000004 -69.3867000000000047
 11.0062999999999995  4.2392200000000004 -70.0354999999999990
 11.0655999999999999  6.9348500000000000 -69.8684999999999974
 12.2124000000000006  4.8492699999999997 -70.1173000000000002
 12.2515999999999998  6.2458299999999998 -70.1186000000000007
