 C                                      
    1.000000000000000     
    28.0500000000000007    0.0000000000000000    0.0000000000000000
     0.0000000000000000    8.0999999999999996    0.0000000000000000
     0.0000000000000000    0.0000000000000000   33.5000000000000000
   C 
    92
Direct
     0.0083428520499140    0.1043071604938248    0.5302388059701499
     0.0097812477718335    0.2770049382716024    0.5333701492537344
     0.0521999999999991    0.0245108641975307    0.5272089552238839
     0.0533436720142575    0.3554246913580243    0.5354149253731322
     0.0952349376114086    0.1038986419753058    0.5188985074626871
     0.0954766488413554    0.2721802469135781    0.5243850746268635
     0.1370837789661294    0.0199114814814791    0.5072746268656729
     0.1392338680926883    0.3499962962962968    0.5133611940298479
     0.1802003565062407    0.1048137037037051    0.4946656716417905
     0.1805144385026765    0.2731530864197538    0.4985671641791072
     0.2212363636363648    0.0192332098765462    0.4857343283582054
     0.2231932263814613    0.3551728395061744    0.4910089552238830
     0.2640684491978575    0.1098114814814792    0.4735910447761214
     0.2656203208556178    0.2814037037037025    0.4782746268656695
     0.3088948306595398    0.0261203703703714    0.4658417910447739
     0.3087732620320836    0.3615691358024691    0.4699104477611940
     0.3531803921568653    0.1117917283950618    0.4599582089552214
     0.3509458110516945    0.2816135802469120    0.4606179104477590
     0.3973190730837786    0.0221634567901248    0.4530537313432816
     0.3975115864527652    0.3625197530864170    0.4562268656716384
     0.4393368983957231    0.1087976543209876    0.4469223880597042
     0.4405668449197861    0.2768000000000015    0.4496985074626849
     0.4852905525846722    0.0231058024691393    0.4487999999999985
     0.4842281639928672    0.3576962962962966    0.4542597014925391
     0.5288734402852029    0.1065643209876512    0.4528298507462694
     0.5299536541889509    0.2734543209876534    0.4518358208955249
     0.5732370766488444    0.0216612345679010    0.4610805970149272
     0.5728449197860996    0.3519567901234595    0.4612328358208941
     0.6170516934046333    0.1013139506172820    0.4687671641791056
     0.6176185383244217    0.2748518518518495    0.4673701492537319
     0.6585240641711252    0.0201450617283925    0.4798477611940299
     0.6607593582887716    0.3572320987654294    0.4762238805970185
     0.7012798573975019    0.1093340740740771    0.4902716417910469
     0.7035686274509771    0.2773604938271603    0.4833104477611911
     0.7437718360071273    0.0339206172839539    0.5053134328358198
     0.7462566844919820    0.3530222222222221    0.4976537313432843
     0.7889768270944728    0.1039585185185175    0.5125701492537331
     0.7886559714794998    0.2663925925925952    0.5066567164179077
     0.8310017825311959    0.0246911111111103    0.5256537313432830
     0.8299429590017837    0.3504555555555555    0.5188298507462719
     0.8731942959001771    0.1074795061728366    0.5298626865671636
     0.8747379679144416    0.2751604938271583    0.5282895522388031
     0.9167308377896646    0.0180176543209853    0.5341044776119404
     0.9176720142602477    0.3574592592592580    0.5373940298507449
     0.9582352941176495    0.1000601234567924    0.5373402985074591
     0.9597504456327997    0.2730827160493803    0.5393611940298513
     0.0102275222816388    0.6042135802469133    0.5481671641791053
     0.0122302673796781    0.7767555555555532    0.5447164179104504
     0.0542666666666634    0.5244012345679039    0.5420746268656700
     0.0523711229946500    0.8574160493827137    0.5343104477611931
     0.0967062388591771    0.6047543209876522    0.5327402985074627
     0.0954242424242437    0.7787876543209862    0.5297432835820928
     0.1406880570409967    0.5245629629629605    0.5212835820895521
     0.1389818181818185    0.8593271604938266    0.5162149253731343
     0.1843415329768305    0.6022716049382737    0.5115611940298521
     0.1813058823529445    0.7745185185185193    0.5087044776119427
     0.2240901960784285    0.5234098765432122    0.4947820895522383
     0.2214737967914431    0.8565753086419789    0.4926716417910413
     0.2665999999999968    0.6121308641975318    0.4861014925373155
     0.2655058823529401    0.7804641975308613    0.4834507462686588
     0.3093850267379707    0.5331876543209901    0.4764268656716411
     0.3090042780748661    0.8632432098765435    0.4713880597014892
     0.3536017825311930    0.6118432098765467    0.4723671641791043
     0.3521076648841373    0.7817839506172817    0.4686985074626833
     0.3964705882352959    0.5265234567901231    0.4663283582089548
     0.3969982174688056    0.8624506172839475    0.4624597014925342
     0.4414260249554331    0.6096753086419753    0.4646417910447767
     0.4413119429590040    0.7746567901234584    0.4640477611940312
     0.4840499108734377    0.5215851851851880    0.4650149253731328
     0.4855115864527662    0.8563703703703709    0.4587014925373154
     0.5274153297682744    0.6079234567901253    0.4699940298507457
     0.5269055258467006    0.7789666666666690    0.4699999999999989
     0.5713083778966137    0.5255975308641965    0.4680716417910418
     0.5711016042780770    0.8603160493827176    0.4724656716417925
     0.6130695187165784    0.6038160493827149    0.4806955223880607
     0.6114795008912637    0.7759370370370391    0.4842985074626895
     0.6591087344028494    0.5242172839506196    0.4815880597014939
     0.6564420677361866    0.8513481481481477    0.4885940298507450
     0.6989910873440266    0.6079543209876519    0.4984597014925356
     0.6988520499108759    0.7746518518518499    0.5008417910447776
     0.7422816399286987    0.5205740740740765    0.5048029850746261
     0.7413725490196086    0.8591506172839516    0.5110477611940283
     0.7833083778966099    0.5992172839506154    0.5164059701492505
     0.7833761140819959    0.7743320987654343    0.5204746268656706
     0.8294438502673813    0.5252086419753113    0.5215791044776097
     0.8280249554367174    0.8542938271604967    0.5279253731343303
     0.8717860962566846    0.6077382716049371    0.5325701492537291
     0.8722994652406442    0.7713308641975303    0.5299940298507479
     0.9175793226381472    0.5225691358024704    0.5389313432835792
     0.9168983957219226    0.8566320987654308    0.5354179104477623
     0.9573618538324453    0.6036444444444413    0.5481223880597028
     0.9590231729055247    0.7804037037037048    0.5465671641791019
 
  0.00000000E+00  0.00000000E+00  0.00000000E+00
  0.00000000E+00  0.00000000E+00  0.00000000E+00
  0.00000000E+00  0.00000000E+00  0.00000000E+00
  0.00000000E+00  0.00000000E+00  0.00000000E+00
  0.00000000E+00  0.00000000E+00  0.00000000E+00
  0.00000000E+00  0.00000000E+00  0.00000000E+00
  0.00000000E+00  0.00000000E+00  0.00000000E+00
  0.00000000E+00  0.00000000E+00  0.00000000E+00
  0.00000000E+00  0.00000000E+00  0.00000000E+00
  0.00000000E+00  0.00000000E+00  0.00000000E+00
  0.00000000E+00  0.00000000E+00  0.00000000E+00
  0.00000000E+00  0.00000000E+00  0.00000000E+00
  0.00000000E+00  0.00000000E+00  0.00000000E+00
  0.00000000E+00  0.00000000E+00  0.00000000E+00
  0.00000000E+00  0.00000000E+00  0.00000000E+00
  0.00000000E+00  0.00000000E+00  0.00000000E+00
  0.00000000E+00  0.00000000E+00  0.00000000E+00
  0.00000000E+00  0.00000000E+00  0.00000000E+00
  0.00000000E+00  0.00000000E+00  0.00000000E+00
  0.00000000E+00  0.00000000E+00  0.00000000E+00
  0.00000000E+00  0.00000000E+00  0.00000000E+00
  0.00000000E+00  0.00000000E+00  0.00000000E+00
  0.00000000E+00  0.00000000E+00  0.00000000E+00
  0.00000000E+00  0.00000000E+00  0.00000000E+00
  0.00000000E+00  0.00000000E+00  0.00000000E+00
  0.00000000E+00  0.00000000E+00  0.00000000E+00
  0.00000000E+00  0.00000000E+00  0.00000000E+00
  0.00000000E+00  0.00000000E+00  0.00000000E+00
  0.00000000E+00  0.00000000E+00  0.00000000E+00
  0.00000000E+00  0.00000000E+00  0.00000000E+00
  0.00000000E+00  0.00000000E+00  0.00000000E+00
  0.00000000E+00  0.00000000E+00  0.00000000E+00
  0.00000000E+00  0.00000000E+00  0.00000000E+00
  0.00000000E+00  0.00000000E+00  0.00000000E+00
  0.00000000E+00  0.00000000E+00  0.00000000E+00
  0.00000000E+00  0.00000000E+00  0.00000000E+00
  0.00000000E+00  0.00000000E+00  0.00000000E+00
  0.00000000E+00  0.00000000E+00  0.00000000E+00
  0.00000000E+00  0.00000000E+00  0.00000000E+00
  0.00000000E+00  0.00000000E+00  0.00000000E+00
  0.00000000E+00  0.00000000E+00  0.00000000E+00
  0.00000000E+00  0.00000000E+00  0.00000000E+00
  0.00000000E+00  0.00000000E+00  0.00000000E+00
  0.00000000E+00  0.00000000E+00  0.00000000E+00
  0.00000000E+00  0.00000000E+00  0.00000000E+00
  0.00000000E+00  0.00000000E+00  0.00000000E+00
  0.00000000E+00  0.00000000E+00  0.00000000E+00
  0.00000000E+00  0.00000000E+00  0.00000000E+00
  0.00000000E+00  0.00000000E+00  0.00000000E+00
  0.00000000E+00  0.00000000E+00  0.00000000E+00
  0.00000000E+00  0.00000000E+00  0.00000000E+00
  0.00000000E+00  0.00000000E+00  0.00000000E+00
  0.00000000E+00  0.00000000E+00  0.00000000E+00
  0.00000000E+00  0.00000000E+00  0.00000000E+00
  0.00000000E+00  0.00000000E+00  0.00000000E+00
  0.00000000E+00  0.00000000E+00  0.00000000E+00
  0.00000000E+00  0.00000000E+00  0.00000000E+00
  0.00000000E+00  0.00000000E+00  0.00000000E+00
  0.00000000E+00  0.00000000E+00  0.00000000E+00
  0.00000000E+00  0.00000000E+00  0.00000000E+00
  0.00000000E+00  0.00000000E+00  0.00000000E+00
  0.00000000E+00  0.00000000E+00  0.00000000E+00
  0.00000000E+00  0.00000000E+00  0.00000000E+00
  0.00000000E+00  0.00000000E+00  0.00000000E+00
  0.00000000E+00  0.00000000E+00  0.00000000E+00
  0.00000000E+00  0.00000000E+00  0.00000000E+00
  0.00000000E+00  0.00000000E+00  0.00000000E+00
  0.00000000E+00  0.00000000E+00  0.00000000E+00
  0.00000000E+00  0.00000000E+00  0.00000000E+00
  0.00000000E+00  0.00000000E+00  0.00000000E+00
  0.00000000E+00  0.00000000E+00  0.00000000E+00
  0.00000000E+00  0.00000000E+00  0.00000000E+00
  0.00000000E+00  0.00000000E+00  0.00000000E+00
  0.00000000E+00  0.00000000E+00  0.00000000E+00
  0.00000000E+00  0.00000000E+00  0.00000000E+00
  0.00000000E+00  0.00000000E+00  0.00000000E+00
  0.00000000E+00  0.00000000E+00  0.00000000E+00
  0.00000000E+00  0.00000000E+00  0.00000000E+00
  0.00000000E+00  0.00000000E+00  0.00000000E+00
  0.00000000E+00  0.00000000E+00  0.00000000E+00
  0.00000000E+00  0.00000000E+00  0.00000000E+00
  0.00000000E+00  0.00000000E+00  0.00000000E+00
  0.00000000E+00  0.00000000E+00  0.00000000E+00
  0.00000000E+00  0.00000000E+00  0.00000000E+00
  0.00000000E+00  0.00000000E+00  0.00000000E+00
  0.00000000E+00  0.00000000E+00  0.00000000E+00
  0.00000000E+00  0.00000000E+00  0.00000000E+00
  0.00000000E+00  0.00000000E+00  0.00000000E+00
  0.00000000E+00  0.00000000E+00  0.00000000E+00
  0.00000000E+00  0.00000000E+00  0.00000000E+00
  0.00000000E+00  0.00000000E+00  0.00000000E+00
  0.00000000E+00  0.00000000E+00  0.00000000E+00
