 C                                      
    1.000000000000000     
    28.0500000000000007    0.0000000000000000    0.0000000000000000
     0.0000000000000000    8.0999999999999996    0.0000000000000000
     0.0000000000000000    0.0000000000000000   33.5000000000000000
   C 
    92
Direct
     0.0118351871657723    0.1002783950617285    0.5076447761194061
     0.0102986809269154    0.2723617283950617    0.5046059701492567
     0.0503433155080231    0.0169135802469143    0.4908835820895519
     0.0474855614973251    0.3505098765432066    0.4851611940298497
     0.0932923351158621    0.0983233333333331    0.4815880597014939
     0.0907144385026726    0.2660765432098771    0.4761970149253756
     0.1344032085561508    0.0191444444444429    0.4660477611940266
     0.1334049910873460    0.3500506172839479    0.4638746268656746
     0.1775058823529392    0.1000740740740724    0.4627671641791054
     0.1771864527629248    0.2752790123456776    0.4621820895522362
     0.2220759358288760    0.0234243209876510    0.4533134328358202
     0.2206153297682718    0.3615222222222201    0.4557134328358217
     0.2659868092691653    0.1101792592592616    0.4593791044776125
     0.2656356506238851    0.2810024691357995    0.4574597014925388
     0.3097946524064170    0.0271504938271576    0.4590597014925351
     0.3089946524064189    0.3590395061728415    0.4600925373134359
     0.3522431372549022    0.1129885185185202    0.4677970149253738
     0.3519383244206793    0.2816641975308656    0.4700865671641807
     0.3957112299465209    0.0332275308641954    0.4817253731343314
     0.3939999999999984    0.3615765432098783    0.4830298507462700
     0.4371836007130128    0.1122217283950633    0.4963910447761180
     0.4357789661319060    0.2826444444444434    0.4957402985074637
     0.4782424242424241    0.0249311111111084    0.5083044776119436
     0.4790552584670209    0.3574259259259236    0.5066149253731353
     0.5204385026737981    0.1015277777777754    0.5198955223880617
     0.5216934046345827    0.2711123456790148    0.5174925373134300
     0.5635044563279834    0.0182830864197498    0.5278656716417913
     0.5655436720142575    0.3482148148148170    0.5240805970149225
     0.6086666666666645    0.0983025925925958    0.5381731343283604
     0.6086024955436713    0.2675432098765427    0.5364925373134355
     0.6546595365418924    0.0226734567901232    0.5410656716417890
     0.6545418894830632    0.3444000000000003    0.5443223880597046
     0.7002780748663113    0.0997935802469101    0.5493880597014922
     0.6984278074866310    0.2693481481481470    0.5533671641791074
     0.7443422459893014    0.0194837037037061    0.5449164179104500
     0.7442673796791439    0.3477518518518536    0.5475880597014893
     0.7892762923351171    0.0949016049382720    0.5508477611940279
     0.7896969696969691    0.2719654320987672    0.5517104477611952
     0.8338181818181809    0.0199244444444417    0.5412716417910417
     0.8321319073083799    0.3568864197530885    0.5444059701492563
     0.8786631016042747    0.1008561728395065    0.5415492537313398
     0.8775828877005338    0.2746222222222201    0.5421253731343256
     0.9233618538324393    0.0232918518518517    0.5308029850746294
     0.9203600713012463    0.3554308641975297    0.5270208955223907
     0.9647522281639951    0.1005881481481481    0.5258149253731332
     0.9637254901960759    0.2795641975308669    0.5245402985074605
     0.0044784313725472    0.6005617283950642    0.4867492537313467
     0.0068357575757574    0.7672024691358033    0.4886447761194006
     0.0449786096256659    0.5159864197530837    0.4747582089552225
     0.0489868092691594    0.8510086419753122    0.4826179104477646
     0.0868880570410013    0.5994222222222234    0.4629313432835787
     0.0904791443850286    0.7660481481481511    0.4674477611940304
     0.1306866310160402    0.5189987654321015    0.4552746268656733
     0.1332695187165740    0.8489975308641959    0.4584417910447769
     0.1748074866310176    0.6083234567901243    0.4478059701492541
     0.1755062388591782    0.7787975308641961    0.4467343283582110
     0.2194491978609605    0.5258135802469113    0.4502417910447747
     0.2222064171122966    0.8611037037037050    0.4446208955223909
     0.2645985739750429    0.6114209876543200    0.4496268656716396
     0.2638203208556149    0.7767962962962969    0.4492805970149263
     0.3102798573975036    0.5332061728395061    0.4557582089552241
     0.3105368983957248    0.8627802469135801    0.4560328358208920
     0.3522894830659524    0.6108753086419725    0.4663552238805977
     0.3549137254901993    0.7796777777777777    0.4602179104477599
     0.3933083778966164    0.5313160493827169    0.4816447761194027
     0.3980213903743319    0.8644370370370353    0.4738029850746273
     0.4369483065953688    0.6093765432098763    0.4903402985074621
     0.4395971479500886    0.7762913580246931    0.4851880597014926
     0.4813832442067749    0.5250641975308667    0.5001074626865645
     0.4822709447415363    0.8599444444444444    0.4965910447761175
     0.5246809269162185    0.6074246913580268    0.5085671641791052
     0.5265775401069490    0.7756098765432071    0.5045880597014900
     0.5666096256684483    0.5221320987654323    0.5171402985074636
     0.5675365418894813    0.8516666666666666    0.5194507462686602
     0.6132620320855651    0.5977580246913590    0.5241940298507473
     0.6115222816399282    0.7673950617283936    0.5223940298507443
     0.6560106951871632    0.5097913580246924    0.5324238805970154
     0.6531301247771850    0.8544098765432082    0.5318597014925359
     0.6989661319073051    0.5938716049382720    0.5346716417910429
     0.6993226381461710    0.7689691358024717    0.5351194029850745
     0.7414901960784306    0.5109728395061737    0.5353731343283599
     0.7425098039215712    0.8468543209876529    0.5369164179104473
     0.7855793226381493    0.5930641975308646    0.5281850746268688
     0.7876114081996448    0.7627913580246926    0.5330597014925402
     0.8309411764705885    0.5183851851851884    0.5301641791044744
     0.8322459893048162    0.8505160493827191    0.5292597014925349
     0.8742459893048107    0.6021049382716086    0.5192238805970177
     0.8751586452762936    0.7755617283950613    0.5178716417910465
     0.9186452762923381    0.5203617283950592    0.5144029850746250
     0.9204527629233539    0.8624086419753070    0.5152537313432859
     0.9557254901960803    0.6049049382716021    0.5002089552238829
     0.9568342245989285    0.7761111111111134    0.4980507462686532
 
  0.00000000E+00  0.00000000E+00  0.00000000E+00
  0.00000000E+00  0.00000000E+00  0.00000000E+00
  0.00000000E+00  0.00000000E+00  0.00000000E+00
  0.00000000E+00  0.00000000E+00  0.00000000E+00
  0.00000000E+00  0.00000000E+00  0.00000000E+00
  0.00000000E+00  0.00000000E+00  0.00000000E+00
  0.00000000E+00  0.00000000E+00  0.00000000E+00
  0.00000000E+00  0.00000000E+00  0.00000000E+00
  0.00000000E+00  0.00000000E+00  0.00000000E+00
  0.00000000E+00  0.00000000E+00  0.00000000E+00
  0.00000000E+00  0.00000000E+00  0.00000000E+00
  0.00000000E+00  0.00000000E+00  0.00000000E+00
  0.00000000E+00  0.00000000E+00  0.00000000E+00
  0.00000000E+00  0.00000000E+00  0.00000000E+00
  0.00000000E+00  0.00000000E+00  0.00000000E+00
  0.00000000E+00  0.00000000E+00  0.00000000E+00
  0.00000000E+00  0.00000000E+00  0.00000000E+00
  0.00000000E+00  0.00000000E+00  0.00000000E+00
  0.00000000E+00  0.00000000E+00  0.00000000E+00
  0.00000000E+00  0.00000000E+00  0.00000000E+00
  0.00000000E+00  0.00000000E+00  0.00000000E+00
  0.00000000E+00  0.00000000E+00  0.00000000E+00
  0.00000000E+00  0.00000000E+00  0.00000000E+00
  0.00000000E+00  0.00000000E+00  0.00000000E+00
  0.00000000E+00  0.00000000E+00  0.00000000E+00
  0.00000000E+00  0.00000000E+00  0.00000000E+00
  0.00000000E+00  0.00000000E+00  0.00000000E+00
  0.00000000E+00  0.00000000E+00  0.00000000E+00
  0.00000000E+00  0.00000000E+00  0.00000000E+00
  0.00000000E+00  0.00000000E+00  0.00000000E+00
  0.00000000E+00  0.00000000E+00  0.00000000E+00
  0.00000000E+00  0.00000000E+00  0.00000000E+00
  0.00000000E+00  0.00000000E+00  0.00000000E+00
  0.00000000E+00  0.00000000E+00  0.00000000E+00
  0.00000000E+00  0.00000000E+00  0.00000000E+00
  0.00000000E+00  0.00000000E+00  0.00000000E+00
  0.00000000E+00  0.00000000E+00  0.00000000E+00
  0.00000000E+00  0.00000000E+00  0.00000000E+00
  0.00000000E+00  0.00000000E+00  0.00000000E+00
  0.00000000E+00  0.00000000E+00  0.00000000E+00
  0.00000000E+00  0.00000000E+00  0.00000000E+00
  0.00000000E+00  0.00000000E+00  0.00000000E+00
  0.00000000E+00  0.00000000E+00  0.00000000E+00
  0.00000000E+00  0.00000000E+00  0.00000000E+00
  0.00000000E+00  0.00000000E+00  0.00000000E+00
  0.00000000E+00  0.00000000E+00  0.00000000E+00
  0.00000000E+00  0.00000000E+00  0.00000000E+00
  0.00000000E+00  0.00000000E+00  0.00000000E+00
  0.00000000E+00  0.00000000E+00  0.00000000E+00
  0.00000000E+00  0.00000000E+00  0.00000000E+00
  0.00000000E+00  0.00000000E+00  0.00000000E+00
  0.00000000E+00  0.00000000E+00  0.00000000E+00
  0.00000000E+00  0.00000000E+00  0.00000000E+00
  0.00000000E+00  0.00000000E+00  0.00000000E+00
  0.00000000E+00  0.00000000E+00  0.00000000E+00
  0.00000000E+00  0.00000000E+00  0.00000000E+00
  0.00000000E+00  0.00000000E+00  0.00000000E+00
  0.00000000E+00  0.00000000E+00  0.00000000E+00
  0.00000000E+00  0.00000000E+00  0.00000000E+00
  0.00000000E+00  0.00000000E+00  0.00000000E+00
  0.00000000E+00  0.00000000E+00  0.00000000E+00
  0.00000000E+00  0.00000000E+00  0.00000000E+00
  0.00000000E+00  0.00000000E+00  0.00000000E+00
  0.00000000E+00  0.00000000E+00  0.00000000E+00
  0.00000000E+00  0.00000000E+00  0.00000000E+00
  0.00000000E+00  0.00000000E+00  0.00000000E+00
  0.00000000E+00  0.00000000E+00  0.00000000E+00
  0.00000000E+00  0.00000000E+00  0.00000000E+00
  0.00000000E+00  0.00000000E+00  0.00000000E+00
  0.00000000E+00  0.00000000E+00  0.00000000E+00
  0.00000000E+00  0.00000000E+00  0.00000000E+00
  0.00000000E+00  0.00000000E+00  0.00000000E+00
  0.00000000E+00  0.00000000E+00  0.00000000E+00
  0.00000000E+00  0.00000000E+00  0.00000000E+00
  0.00000000E+00  0.00000000E+00  0.00000000E+00
  0.00000000E+00  0.00000000E+00  0.00000000E+00
  0.00000000E+00  0.00000000E+00  0.00000000E+00
  0.00000000E+00  0.00000000E+00  0.00000000E+00
  0.00000000E+00  0.00000000E+00  0.00000000E+00
  0.00000000E+00  0.00000000E+00  0.00000000E+00
  0.00000000E+00  0.00000000E+00  0.00000000E+00
  0.00000000E+00  0.00000000E+00  0.00000000E+00
  0.00000000E+00  0.00000000E+00  0.00000000E+00
  0.00000000E+00  0.00000000E+00  0.00000000E+00
  0.00000000E+00  0.00000000E+00  0.00000000E+00
  0.00000000E+00  0.00000000E+00  0.00000000E+00
  0.00000000E+00  0.00000000E+00  0.00000000E+00
  0.00000000E+00  0.00000000E+00  0.00000000E+00
  0.00000000E+00  0.00000000E+00  0.00000000E+00
  0.00000000E+00  0.00000000E+00  0.00000000E+00
  0.00000000E+00  0.00000000E+00  0.00000000E+00
  0.00000000E+00  0.00000000E+00  0.00000000E+00
